     Program PWSCF v.7.2 starts on 20Jun2024 at 21: 3: 5

     Waiting for input...
     Reading input from standard input

     Current dimensions of program PWSCF are:
     Max number of different atomic species (ntypx) = 10
     Max number of k-points (npk) =  40000
     Max angular momentum in pseudopotentials (lmaxx) =  4

     R & G space division:  proc/nbgrp/npool/nimage =       6
     Subspace diagonalization in iterative solution of the eigenvalue problem:
     a serial algorithm will be used

     Using Slab Decomposition

     bravais-lattice index     =            4
     lattice parameter (alat)  =       8.8439  a.u.
     unit-cell volume          =    2560.0529 (a.u.)^3
     number of atoms/cell      =            2
     number of atomic types    =            1
     number of electrons       =        28.00
     number of Kohn-Sham states=           18
     kinetic-energy cutoff     =      60.0000  Ry
     charge density cutoff     =     480.0000  Ry
     scf convergence threshold =      1.0E-07
     mixing beta               =       0.7000
     number of iterations used =            8  plain     mixing
     energy convergence thresh.=      1.0E-05
     force convergence thresh. =      1.0E-04
     press convergence thresh. =      5.0E-01
     Exchange-correlation= SLA  PW   PSX  PSC
                           (   1   4  10   8   0   0   0)
     nstep                     =           50

     celldm(1)=   8.843918  celldm(2)=   0.000000  celldm(3)=   4.273504
     celldm(4)=   0.000000  celldm(5)=   0.000000  celldm(6)=   0.000000

     crystal axes: (cart. coord. in units of alat)
               a(1) = (   1.000000   0.000000   0.000000 )
               a(2) = (  -0.500000   0.866025   0.000000 )
               a(3) = (   0.000000   0.000000   4.273504 )

     reciprocal axes: (cart. coord. in units 2 pi/alat)
               b(1) = (  1.000000  0.577350 -0.000000 )
               b(2) = (  0.000000  1.154701  0.000000 )
               b(3) = (  0.000000 -0.000000  0.234000 )

     PseudoPot. # 1 for Sn read from file:
     ../pseudo/sn_pbesol_v1.4.uspp.F.UPF
     MD5 check sum: 463fec1d5456f1e96ec1bfcad4b7b038
     Pseudo is Ultrasoft + core correction, Zval = 14.0
     Generated by new atomic code, or converted to UPF format
     Using radial grid of  891 points,  6 beta functions with:
                l(1) =   0
                l(2) =   0
                l(3) =   1
                l(4) =   1
                l(5) =   2
                l(6) =   2
     Q(r) pseudized with  8 coefficients,  rinner =    1.350   1.350   1.350
                                                       1.350   1.350

     atomic species   valence    mass     pseudopotential
        Sn            14.00   118.71000     Sn( 1.00)

     24 Sym. Ops., with inversion, found

   Cartesian axes

     site n.     atom                  positions (alat units)
         1           Sn  tau(   1) = (   0.0000000   0.5773503   2.1367521  )
         2           Sn  tau(   2) = (   0.5000000   0.2886751   2.1367521  )

     number of k points=    61  Methfessel-Paxton smearing, width (Ry)=  0.0200
                       cart. coord. in units 2pi/alat
        k(    1) = (   0.0000000   0.0000000   0.0000000), wk =   0.0034722
        k(    2) = (   0.0000000   0.0481125   0.0000000), wk =   0.0208333
        k(    3) = (   0.0000000   0.0962250   0.0000000), wk =   0.0208333
        k(    4) = (   0.0000000   0.1443376   0.0000000), wk =   0.0208333
        k(    5) = (   0.0000000   0.1924501   0.0000000), wk =   0.0208333
        k(    6) = (   0.0000000   0.2405626   0.0000000), wk =   0.0208333
        k(    7) = (   0.0000000   0.2886751   0.0000000), wk =   0.0208333
        k(    8) = (   0.0000000   0.3367877   0.0000000), wk =   0.0208333
        k(    9) = (   0.0000000   0.3849002   0.0000000), wk =   0.0208333
        k(   10) = (   0.0000000   0.4330127   0.0000000), wk =   0.0208333
        k(   11) = (   0.0000000   0.4811252   0.0000000), wk =   0.0208333
        k(   12) = (   0.0000000   0.5292377   0.0000000), wk =   0.0208333
        k(   13) = (   0.0000000  -0.5773503   0.0000000), wk =   0.0104167
        k(   14) = (   0.0416667   0.0721688   0.0000000), wk =   0.0208333
        k(   15) = (   0.0416667   0.1202813   0.0000000), wk =   0.0416667
        k(   16) = (   0.0416667   0.1683938   0.0000000), wk =   0.0416667
        k(   17) = (   0.0416667   0.2165064   0.0000000), wk =   0.0416667
        k(   18) = (   0.0416667   0.2646189   0.0000000), wk =   0.0416667
        k(   19) = (   0.0416667   0.3127314   0.0000000), wk =   0.0416667
        k(   20) = (   0.0416667   0.3608439   0.0000000), wk =   0.0416667
        k(   21) = (   0.0416667   0.4089564   0.0000000), wk =   0.0416667
        k(   22) = (   0.0416667   0.4570690   0.0000000), wk =   0.0416667
        k(   23) = (   0.0416667   0.5051815   0.0000000), wk =   0.0416667
        k(   24) = (   0.0416667   0.5532940   0.0000000), wk =   0.0416667
        k(   25) = (   0.0833333   0.1443376   0.0000000), wk =   0.0208333
        k(   26) = (   0.0833333   0.1924501   0.0000000), wk =   0.0416667
        k(   27) = (   0.0833333   0.2405626   0.0000000), wk =   0.0416667
        k(   28) = (   0.0833333   0.2886751   0.0000000), wk =   0.0416667
        k(   29) = (   0.0833333   0.3367877   0.0000000), wk =   0.0416667
        k(   30) = (   0.0833333   0.3849002   0.0000000), wk =   0.0416667
        k(   31) = (   0.0833333   0.4330127   0.0000000), wk =   0.0416667
        k(   32) = (   0.0833333   0.4811252   0.0000000), wk =   0.0416667
        k(   33) = (   0.0833333   0.5292377   0.0000000), wk =   0.0416667
        k(   34) = (   0.0833333   0.5773503   0.0000000), wk =   0.0208333
        k(   35) = (   0.1250000   0.2165064   0.0000000), wk =   0.0208333
        k(   36) = (   0.1250000   0.2646189   0.0000000), wk =   0.0416667
        k(   37) = (   0.1250000   0.3127314   0.0000000), wk =   0.0416667
        k(   38) = (   0.1250000   0.3608439   0.0000000), wk =   0.0416667
        k(   39) = (   0.1250000   0.4089564   0.0000000), wk =   0.0416667
        k(   40) = (   0.1250000   0.4570690   0.0000000), wk =   0.0416667
        k(   41) = (   0.1250000   0.5051815   0.0000000), wk =   0.0416667
        k(   42) = (   0.1250000   0.5532940   0.0000000), wk =   0.0416667
        k(   43) = (   0.1666667   0.2886751   0.0000000), wk =   0.0208333
        k(   44) = (   0.1666667   0.3367877   0.0000000), wk =   0.0416667
        k(   45) = (   0.1666667   0.3849002   0.0000000), wk =   0.0416667
        k(   46) = (   0.1666667   0.4330127   0.0000000), wk =   0.0416667
        k(   47) = (   0.1666667   0.4811252   0.0000000), wk =   0.0416667
        k(   48) = (   0.1666667   0.5292377   0.0000000), wk =   0.0416667
        k(   49) = (   0.1666667   0.5773503   0.0000000), wk =   0.0208333
        k(   50) = (   0.2083333   0.3608439   0.0000000), wk =   0.0208333
        k(   51) = (   0.2083333   0.4089564   0.0000000), wk =   0.0416667
        k(   52) = (   0.2083333   0.4570690   0.0000000), wk =   0.0416667
        k(   53) = (   0.2083333   0.5051815   0.0000000), wk =   0.0416667
        k(   54) = (   0.2083333   0.5532940   0.0000000), wk =   0.0416667
        k(   55) = (   0.2500000   0.4330127   0.0000000), wk =   0.0208333
        k(   56) = (   0.2500000   0.4811252   0.0000000), wk =   0.0416667
        k(   57) = (   0.2500000   0.5292377   0.0000000), wk =   0.0416667
        k(   58) = (   0.2500000   0.5773503   0.0000000), wk =   0.0208333
        k(   59) = (   0.2916667   0.5051815   0.0000000), wk =   0.0208333
        k(   60) = (   0.2916667   0.5532940   0.0000000), wk =   0.0416667
        k(   61) = (   0.3333333   0.5773503   0.0000000), wk =   0.0069444

     Initial potential from superposition of free atoms

     starting charge      25.9999, renormalised to      28.0000

     negative rho (up, down):  6.174E-04 0.000E+00
     Starting wfcs are   18 randomized atomic wfcs

     Self-consistent Calculation

     iteration #  1     ecut=    60.00 Ry     beta= 0.70
     Davidson diagonalization with overlap
     ethr =  1.00E-02,  avg # of iterations =  6.4

     negative rho (up, down):  8.382E-06 0.000E+00

     total energy              =    -316.96328890 Ry
     estimated scf accuracy    <       2.28917082 Ry

[...]

     iteration #  4     ecut=    60.00 Ry     beta= 0.70
     Davidson diagonalization with overlap
     c_bands:  1 eigenvalues not converged
     ethr =  2.97E-05,  avg # of iterations =  8.2

[...]

     End of self-consistent calculation

          k = 0.0000 0.0000 0.0000 ( 20001 PWs)   bands (ev):

   -24.1483 -24.1369 -24.1369 -24.0295 -24.0295 -23.8713 -23.8713 -23.7958
   -23.7958 -23.7366 -12.3392  -4.3926  -3.8295  -3.4553  -3.4553   0.5505
     0.5505   1.0149

[...]

     the Fermi energy is    -2.3731 ev

!    total energy              =    -317.73807966 Ry
     estimated scf accuracy    <       0.00000008 Ry
     smearing contrib. (-TS)   =       0.00028789 Ry
     internal energy E=F+TS    =    -317.73836755 Ry

     The total energy is F=E-TS. E is the sum of the following terms:
     one-electron contribution =    -884.78660514 Ry
     hartree contribution      =     449.07341078 Ry
     xc contribution           =     -85.00347696 Ry
     ewald contribution        =     202.97830378 Ry

     convergence has been achieved in   8 iterations

[...]

     Forces acting on atoms (cartesian axes, Ry/au):

     atom    1 type  1   force =     0.00000000    0.00000000    0.00000000
     atom    2 type  1   force =     0.00000000   -0.00000000    0.00000000
     The non-local contrib.  to forces
     atom    1 type  1   force =     0.00000000    0.00000000    0.00000000
     atom    2 type  1   force =     0.00000000   -0.00000000   -0.00000000
     The ionic contribution  to forces
     atom    1 type  1   force =    -0.00000003    0.00000002    0.00000000
     atom    2 type  1   force =     0.00000003   -0.00000002    0.00000000
     The local contribution  to forces
     atom    1 type  1   force =    -0.00000000    0.00000041   -0.00000000
     atom    2 type  1   force =     0.00000036    0.00000021   -0.00000000
     The core correction contribution to forces
     atom    1 type  1   force =     0.00000000    0.00000004   -0.00000000
     atom    2 type  1   force =     0.00000004    0.00000002   -0.00000000
     The Hubbard contrib.    to forces
     atom    1 type  1   force =     0.00000000    0.00000000    0.00000000
     atom    2 type  1   force =     0.00000000    0.00000000    0.00000000
     The SCF correction term to forces
     atom    1 type  1   force =    -0.00000000    0.00000000    0.00000000
     atom    2 type  1   force =     0.00000000    0.00000000    0.00000000

     Total force =     0.000000     Total SCF correction =     0.000000

     Computing stress (Cartesian axis) and pressure

     negative rho (up, down):  5.379E-05 0.000E+00
          total   stress  (Ry/bohr**3)                   (kbar)     P=        0.05
   0.00000488  -0.00000000   0.00000000            0.72       -0.00        0.00
  -0.00000000   0.00000488  -0.00000000           -0.00        0.72       -0.00
   0.00000000  -0.00000000  -0.00000865            0.00       -0.00       -1.27

     BFGS Geometry Optimization
     Energy error            =      0.0E+00 Ry
     Gradient error          =      2.5E-24 Ry/Bohr
     Cell gradient error     =      7.2E-01 kbar

     number of scf cycles    =   1
     number of bfgs steps    =   0

     enthalpy           new  =    -317.7380796636 Ry

     new trust radius        =       0.0012337554 bohr
     new conv_thr            =       0.0000001000 Ry

     new unit-cell volume =   2560.67715 a.u.^3 (   379.45320 Ang^3 )
     density =      1.03898 g/cm^3

CELL_PARAMETERS (alat=  8.84391826)
   1.000121920  -0.000000000   0.000000000
  -0.500060960   0.866130990   0.000000000
   0.000000000   0.000000000   4.273504274

ATOMIC_POSITIONS (crystal)
Sn            0.3333333330        0.6666666660        0.5000000000
Sn            0.6666666660        0.3333333330        0.5000000000

     Writing config-only to output data dir ../tmp/stanene.save/
     NEW-OLD atomic charge density approx. for the potential

     negative rho (up, down):  6.071E-05 0.000E+00
     extrapolated charge   28.00634, renormalised to   28.00000

[...]

     Threshold (ethr) on eigenvalues was too large:
     Diagonalizing with lowered threshold

     Davidson diagonalization with overlap
     ethr =  4.10E-08,  avg # of iterations =  1.2

[...]

          k =-0.0000-0.5773 0.0000 ( 20096 PWs)   bands (ev):

[...]

     Energy error            =      7.2E-06 Ry
     Gradient error          =      6.4E-24 Ry/Bohr
     Cell gradient error     =      2.3E+00 kbar

[...]

     enthalpy           old  =    -317.7380796636 Ry
     enthalpy           new  =    -317.7380869061 Ry

     CASE: enthalpy          _new < enthalpy          _old

     WARNING: bfgs curvature condition failed, Theta= 0.248
     new trust radius        =       0.0013571309 bohr
     new conv_thr            =       0.0000000010 Ry

[...]

     Threshold (ethr) on eigenvalues was too large:
     Diagonalizing with lowered threshold

     Davidson diagonalization with overlap
     ethr =  6.55E-08,  avg # of iterations =  1.0

[...]

     WARNING: bfgs curvature condition failed, Theta= 0.853
     new trust radius        =       0.0031343238 bohr
     new conv_thr            =       0.0000000010 Ry

[...]

     number of scf cycles    =  10
     number of bfgs steps    =   9

     enthalpy           old  =    -317.7382160397 Ry
     enthalpy           new  =    -317.7382417582 Ry

     CASE: enthalpy          _new < enthalpy          _old

     new trust radius        =       0.0074744690 bohr
     new conv_thr            =       0.0000000010 Ry

     new unit-cell volume =   2588.61023 a.u.^3 (   383.59246 Ang^3 )
     density =      1.02777 g/cm^3

[...]

ATOMIC_POSITIONS (crystal)
Sn            0.3333333330        0.6666666660        0.5000000000
Sn            0.6666666660        0.3333333330        0.5000000000

     Writing config-only to output data dir ../tmp/stanene.save/
     NEW-OLD atomic charge density approx. for the potential

     negative rho (up, down):  8.262E-05 0.000E+00
     extrapolated charge   28.03818, renormalised to   28.00000

[...]

     Energy error            =      3.3E-06 Ry
     Gradient error          =      2.2E-24 Ry/Bohr
     Cell gradient error     =      7.7E-02 kbar

     bfgs converged in  11 scf cycles and  10 bfgs steps
     (criteria: energy <  1.0E-05 Ry, force <  1.0E-04 Ry/Bohr, cell <  5.0E-01 kbar)

     End of BFGS Geometry Optimization

     Final enthalpy           =    -317.7382450684 Ry

     File ../tmp/stanene.bfgs deleted, as requested
Begin final coordinates
     new unit-cell volume =   2588.61023 a.u.^3 (   383.59246 Ang^3 )
     density =      1.02777 g/cm^3

CELL_PARAMETERS (alat=  8.84391826)
   1.005562026  -0.000000000   0.000000000
  -0.502781013   0.870842260   0.000000000
   0.000000000   0.000000000   4.273504274

ATOMIC_POSITIONS (crystal)
Sn            0.3333333330        0.6666666660        0.5000000000
Sn            0.6666666660        0.3333333330        0.5000000000
End final coordinates

     Writing config-only to output data dir ../tmp/stanene.save/

     Final scf calculation at the relaxed structure.
     The G-vectors are recalculated for the final unit cell
     Results may differ from those at the preceding step.

     Using Slab Decomposition

     bravais-lattice index     =            4
     lattice parameter (alat)  =       8.8439  a.u.
     unit-cell volume          =    2588.6102 (a.u.)^3
     number of atoms/cell      =            2
     number of atomic types    =            1
     number of electrons       =        28.00
     number of Kohn-Sham states=           18
     kinetic-energy cutoff     =      60.0000  Ry
     charge density cutoff     =     480.0000  Ry
     scf convergence threshold =      1.0E-09
     mixing beta               =       0.7000
     number of iterations used =            8  plain     mixing
     press convergence thresh. =      5.0E-01
     Exchange-correlation= SLA  PW   PSX  PSC
                           (   1   4  10   8   0   0   0)

     celldm(1)=   8.843918  celldm(2)=   0.000000  celldm(3)=   4.273504
     celldm(4)=   0.000000  celldm(5)=   0.000000  celldm(6)=   0.000000

     crystal axes: (cart. coord. in units of alat)
               a(1) = (   1.005562  -0.000000   0.000000 )
               a(2) = (  -0.502781   0.870842   0.000000 )
               a(3) = (   0.000000   0.000000   4.273504 )

     reciprocal axes: (cart. coord. in units 2 pi/alat)
               b(1) = (  0.994469  0.574157 -0.000000 )
               b(2) = (  0.000000  1.148314 -0.000000 )
               b(3) = ( -0.000000 -0.000000  0.234000 )

     PseudoPot. # 1 for Sn read from file:
     ../pseudo/sn_pbesol_v1.4.uspp.F.UPF
     MD5 check sum: 463fec1d5456f1e96ec1bfcad4b7b038
     Pseudo is Ultrasoft + core correction, Zval = 14.0
     Generated by new atomic code, or converted to UPF format
     Using radial grid of  891 points,  6 beta functions with:
                l(1) =   0
                l(2) =   0
                l(3) =   1
                l(4) =   1
                l(5) =   2
                l(6) =   2
     Q(r) pseudized with  8 coefficients,  rinner =    1.350   1.350   1.350
                                                       1.350   1.350

     atomic species   valence    mass     pseudopotential
        Sn            14.00   118.71000     Sn( 1.00)

     24 Sym. Ops., with inversion, found

   Cartesian axes

     site n.     atom                  positions (alat units)
         1           Sn  tau(   1) = (  -0.0000000   0.5805615   2.1367521  )
         2           Sn  tau(   2) = (   0.5027810   0.2902808   2.1367521  )

     number of k points=    61  Methfessel-Paxton smearing, width (Ry)=  0.0200
                       cart. coord. in units 2pi/alat
        k(    1) = (   0.0000000   0.0000000   0.0000000), wk =   0.0034722
        k(    2) = (   0.0000000   0.0478464   0.0000000), wk =   0.0208333
        k(    3) = (   0.0000000   0.0956928   0.0000000), wk =   0.0208333
        k(    4) = (   0.0000000   0.1435392   0.0000000), wk =   0.0208333
        k(    5) = (   0.0000000   0.1913856   0.0000000), wk =   0.0208333
        k(    6) = (   0.0000000   0.2392320   0.0000000), wk =   0.0208333
        k(    7) = (   0.0000000   0.2870784   0.0000000), wk =   0.0208333
        k(    8) = (   0.0000000   0.3349248   0.0000000), wk =   0.0208333
        k(    9) = (   0.0000000   0.3827712   0.0000000), wk =   0.0208333
        k(   10) = (   0.0000000   0.4306176   0.0000000), wk =   0.0208333
        k(   11) = (   0.0000000   0.4784640   0.0000000), wk =   0.0208333
        k(   12) = (   0.0000000   0.5263104   0.0000000), wk =   0.0208333
        k(   13) = (  -0.0000000  -0.5741568   0.0000000), wk =   0.0104167
        k(   14) = (   0.0414362   0.0717696   0.0000000), wk =   0.0208333
        k(   15) = (   0.0414362   0.1196160   0.0000000), wk =   0.0416667
        k(   16) = (   0.0414362   0.1674624   0.0000000), wk =   0.0416667
        k(   17) = (   0.0414362   0.2153088   0.0000000), wk =   0.0416667
        k(   18) = (   0.0414362   0.2631552   0.0000000), wk =   0.0416667
        k(   19) = (   0.0414362   0.3110016   0.0000000), wk =   0.0416667
        k(   20) = (   0.0414362   0.3588480   0.0000000), wk =   0.0416667
        k(   21) = (   0.0414362   0.4066944   0.0000000), wk =   0.0416667
        k(   22) = (   0.0414362   0.4545408   0.0000000), wk =   0.0416667
        k(   23) = (   0.0414362   0.5023872   0.0000000), wk =   0.0416667
        k(   24) = (   0.0414362   0.5502336   0.0000000), wk =   0.0416667
        k(   25) = (   0.0828724   0.1435392   0.0000000), wk =   0.0208333
        k(   26) = (   0.0828724   0.1913856   0.0000000), wk =   0.0416667
        k(   27) = (   0.0828724   0.2392320   0.0000000), wk =   0.0416667
        k(   28) = (   0.0828724   0.2870784   0.0000000), wk =   0.0416667
        k(   29) = (   0.0828724   0.3349248   0.0000000), wk =   0.0416667
        k(   30) = (   0.0828724   0.3827712   0.0000000), wk =   0.0416667
        k(   31) = (   0.0828724   0.4306176   0.0000000), wk =   0.0416667
        k(   32) = (   0.0828724   0.4784640   0.0000000), wk =   0.0416667
        k(   33) = (   0.0828724   0.5263104   0.0000000), wk =   0.0416667
        k(   34) = (   0.0828724   0.5741568   0.0000000), wk =   0.0208333
        k(   35) = (   0.1243086   0.2153088   0.0000000), wk =   0.0208333
        k(   36) = (   0.1243086   0.2631552   0.0000000), wk =   0.0416667
        k(   37) = (   0.1243086   0.3110016   0.0000000), wk =   0.0416667
        k(   38) = (   0.1243086   0.3588480   0.0000000), wk =   0.0416667
        k(   39) = (   0.1243086   0.4066944   0.0000000), wk =   0.0416667
        k(   40) = (   0.1243086   0.4545408   0.0000000), wk =   0.0416667
        k(   41) = (   0.1243086   0.5023872   0.0000000), wk =   0.0416667
        k(   42) = (   0.1243086   0.5502336   0.0000000), wk =   0.0416667
        k(   43) = (   0.1657448   0.2870784   0.0000000), wk =   0.0208333
        k(   44) = (   0.1657448   0.3349248   0.0000000), wk =   0.0416667
        k(   45) = (   0.1657448   0.3827712   0.0000000), wk =   0.0416667
        k(   46) = (   0.1657448   0.4306176   0.0000000), wk =   0.0416667
        k(   47) = (   0.1657448   0.4784640   0.0000000), wk =   0.0416667
        k(   48) = (   0.1657448   0.5263104   0.0000000), wk =   0.0416667
        k(   49) = (   0.1657448   0.5741568   0.0000000), wk =   0.0208333
        k(   50) = (   0.2071810   0.3588480   0.0000000), wk =   0.0208333
        k(   51) = (   0.2071810   0.4066944   0.0000000), wk =   0.0416667
        k(   52) = (   0.2071810   0.4545408   0.0000000), wk =   0.0416667
        k(   53) = (   0.2071810   0.5023872   0.0000000), wk =   0.0416667
        k(   54) = (   0.2071810   0.5502336   0.0000000), wk =   0.0416667
        k(   55) = (   0.2486172   0.4306176   0.0000000), wk =   0.0208333
        k(   56) = (   0.2486172   0.4784640   0.0000000), wk =   0.0416667
        k(   57) = (   0.2486172   0.5263104   0.0000000), wk =   0.0416667
        k(   58) = (   0.2486172   0.5741568   0.0000000), wk =   0.0208333
        k(   59) = (   0.2900534   0.5023872   0.0000000), wk =   0.0208333
        k(   60) = (   0.2900534   0.5502336   0.0000000), wk =   0.0416667
        k(   61) = (   0.3314896   0.5741568   0.0000000), wk =   0.0069444

     Initial potential from superposition of free atoms

     starting charge      25.9999, renormalised to      28.0000

     negative rho (up, down):  6.230E-04 0.000E+00
     Starting wfcs are   18 randomized atomic wfcs

     Self-consistent Calculation

[...]

     iteration #  9     ecut=    60.00 Ry     beta= 0.70
     Davidson diagonalization with overlap
     c_bands:  1 eigenvalues not converged
     ethr =  3.04E-10,  avg # of iterations =  2.5

[...]

     total energy              =    -317.73830837 Ry
     estimated scf accuracy    <          3.3E-09 Ry

     iteration # 10     ecut=    60.00 Ry     beta= 0.70
     Davidson diagonalization with overlap
     ethr =  1.20E-11,  avg # of iterations =  2.6

[...]

     End of self-consistent calculation

[...]

          k =-0.0000-0.5742 0.0000 ( 20316 PWs)   bands (ev):

[...]

          k = 0.3315 0.5742 0.0000 ( 20289 PWs)   bands (ev):

   -24.3847 -24.1891 -24.1891 -24.0751 -23.9358 -23.9358 -23.7922 -23.7847
   -23.7847 -23.6240  -9.9288  -9.9288  -5.9385  -2.0326  -2.0326   1.6466
     1.6466   2.0292

     the Fermi energy is    -2.4054 ev

!    total energy              =    -317.73830837 Ry
     estimated scf accuracy    <          3.0E-10 Ry
     smearing contrib. (-TS)   =       0.00029873 Ry
     internal energy E=F+TS    =    -317.73860711 Ry

     The total energy is F=E-TS. E is the sum of the following terms:
     one-electron contribution =    -877.49023768 Ry
     hartree contribution      =     445.40612600 Ry
     xc contribution           =     -84.99025737 Ry
     ewald contribution        =     199.33576195 Ry

     convergence has been achieved in  10 iterations

     negative rho (up, down):  5.395E-05 0.000E+00

     Forces acting on atoms (cartesian axes, Ry/au):

     atom    1 type  1   force =     0.00000000    0.00000000    0.00000000
     atom    2 type  1   force =    -0.00000000   -0.00000000    0.00000000
     The non-local contrib.  to forces
     atom    1 type  1   force =    -0.00000000   -0.00000000    0.00000000
     atom    2 type  1   force =     0.00000000    0.00000000   -0.00000000
     The ionic contribution  to forces
     atom    1 type  1   force =    -0.00000003    0.00000002    0.00000000
     atom    2 type  1   force =     0.00000003   -0.00000002    0.00000000
     The local contribution  to forces
     atom    1 type  1   force =     0.00000000    0.00000042    0.00000000
     atom    2 type  1   force =     0.00000036    0.00000021    0.00000000
     The core correction contribution to forces
     atom    1 type  1   force =     0.00000000    0.00000004    0.00000000
     atom    2 type  1   force =     0.00000004    0.00000002    0.00000000
     The Hubbard contrib.    to forces
     atom    1 type  1   force =     0.00000000    0.00000000    0.00000000
     atom    2 type  1   force =     0.00000000    0.00000000    0.00000000
     The SCF correction term to forces
     atom    1 type  1   force =     0.00000000   -0.00000000   -0.00000000
     atom    2 type  1   force =    -0.00000000   -0.00000000   -0.00000000

     Total force =     0.000000     Total SCF correction =     0.000000

     Computing stress (Cartesian axis) and pressure

     negative rho (up, down):  5.395E-05 0.000E+00
          total   stress  (Ry/bohr**3)                   (kbar)     P=        0.04
   0.00000116   0.00000000  -0.00000000            0.17        0.00       -0.00
   0.00000000   0.00000116  -0.00000000            0.00        0.17       -0.00
  -0.00000000  -0.00000000  -0.00000147           -0.00       -0.00       -0.22

     Writing all to output data dir ../tmp/stanene.save/

     General routines

     Parallel routines

   This run was terminated on:   9:14:12  21Jun2024

   JOB DONE.