     Program PWSCF v.7.2 starts on 23Mar2024 at 22:12:12

     Waiting for input...
     Reading input from standard input

     Current dimensions of program PWSCF are:
     Max number of different atomic species (ntypx) = 10
     Max number of k-points (npk) =  40000
     Max angular momentum in pseudopotentials (lmaxx) =  4
     file Sn.rel-pbesol-dn-kjpaw_psl.0.2.UPF: wavefunction(s)  5P 5P 4D 4D renormalized

     R & G space division:  proc/nbgrp/npool/nimage =       6
     Subspace diagonalization in iterative solution of the eigenvalue problem:
     a serial algorithm will be used

     Using Slab Decomposition

     bravais-lattice index     =            4
     lattice parameter (alat)  =       8.8506  a.u.
     unit-cell volume          =    2563.9136 (a.u.)^3
     number of atoms/cell      =            2
     number of atomic types    =            1
     number of electrons       =        28.00
     number of Kohn-Sham states=           28
     kinetic-energy cutoff     =      60.0000  Ry
     charge density cutoff     =     240.0000  Ry
     scf convergence threshold =      1.0E-06
     mixing beta               =       0.7000
     number of iterations used =            8  plain     mixing
     Exchange-correlation= SLA  PW   PSX  PSC
                           (   1   4  10   8   0   0   0)
     Non magnetic calculation with spin-orbit

     celldm(1)=   8.850584  celldm(2)=   0.000000  celldm(3)=   4.270286
     celldm(4)=   0.000000  celldm(5)=   0.000000  celldm(6)=   0.000000

     crystal axes: (cart. coord. in units of alat)
               a(1) = (   1.000000   0.000000   0.000000 )
               a(2) = (  -0.500000   0.866025   0.000000 )
               a(3) = (   0.000000   0.000000   4.270286 )

     reciprocal axes: (cart. coord. in units 2 pi/alat)
               b(1) = (  1.000000  0.577350 -0.000000 )
               b(2) = (  0.000000  1.154701  0.000000 )
               b(3) = (  0.000000 -0.000000  0.234176 )

     PseudoPot. # 1 for Sn read from file:
     ../pseudo/Sn.rel-pbesol-dn-kjpaw_psl.0.2.UPF
     MD5 check sum: dab48bced22424d3e4a00d850c44dbfd
     Pseudo is Projector augmented-wave + core cor, Zval = 14.0
     Generated using "atomic" code by A. Dal Corso  v.5.0.2 svn rev. 9415
     Shape of augmentation charge: BESSEL
     Using radial grid of 1243 points, 10 beta functions with:
                l(1) =   0
                l(2) =   0
                l(3) =   1
                l(4) =   1
                l(5) =   1
                l(6) =   1
                l(7) =   2
                l(8) =   2
                l(9) =   2
               l(10) =   2
     Q(r) pseudized with 0 coefficients

     atomic species   valence    mass     pseudopotential
        Sn            14.00   118.71000     Sn( 1.00)

      6 Sym. Ops. (no inversion) found

   Cartesian axes

     site n.     atom                  positions (alat units)
         1           Sn  tau(   1) = (   0.0000000   0.5773503   2.1351428  )
         2           Sn  tau(   2) = (   0.5000000   0.2886751   1.9552503  )

     number of k points=    14
                       cart. coord. in units 2pi/alat
        k(    1) = (   0.0000000   0.0000000   0.0000000), wk =   0.0100000
        k(    2) = (   0.0000000   0.1154701   0.0000000), wk =   0.0600000
        k(    3) = (   0.0000000   0.2309401   0.0000000), wk =   0.0600000
        k(    4) = (   0.0000000   0.3464102   0.0000000), wk =   0.0600000
        k(    5) = (   0.0000000   0.4618802   0.0000000), wk =   0.0600000
        k(    6) = (   0.0000000  -0.5773503   0.0000000), wk =   0.0300000
        k(    7) = (   0.1000000   0.1732051   0.0000000), wk =   0.0600000
        k(    8) = (   0.1000000   0.2886751   0.0000000), wk =   0.1200000
        k(    9) = (   0.1000000   0.4041452   0.0000000), wk =   0.1200000
        k(   10) = (   0.1000000   0.5196152   0.0000000), wk =   0.1200000
        k(   11) = (   0.2000000   0.3464102   0.0000000), wk =   0.0600000
        k(   12) = (   0.2000000   0.4618802   0.0000000), wk =   0.1200000
        k(   13) = (   0.2000000   0.5773503   0.0000000), wk =   0.0600000
        k(   14) = (   0.3000000   0.5196152   0.0000000), wk =   0.0600000

     Check: negative core charge=   -0.000016

     Initial potential from superposition of free atoms

     starting charge      27.9980, renormalised to      28.0000

     negative rho (up, down):  1.656E-03 0.000E+00
     Starting wfcs are   36 randomized atomic wfcs
     Checking if some PAW data can be deallocated...

     Self-consistent Calculation

     iteration #  1     ecut=    60.00 Ry     beta= 0.70
     Davidson diagonalization with overlap
     ethr =  1.00E-02,  avg # of iterations =  1.0

     Threshold (ethr) on eigenvalues was too large:
     Diagonalizing with lowered threshold

     Davidson diagonalization with overlap
     ethr =  4.77E-05,  avg # of iterations =  6.1

     negative rho (up, down):  1.696E-03 0.000E+00

     total energy              =    -874.73812984 Ry
     estimated scf accuracy    <       0.02277714 Ry

[...]

     total energy              =    -874.74329127 Ry
     estimated scf accuracy    <       0.00000496 Ry

     iteration #  7     ecut=    60.00 Ry     beta= 0.70
     Davidson diagonalization with overlap
     ethr =  1.77E-08,  avg # of iterations =  5.1

     negative rho (up, down):  1.711E-03 0.000E+00

     End of self-consistent calculation

          k = 0.0000 0.0000 0.0000 ( 20025 PWs)   bands (ev):

   -23.9057 -23.9057 -23.9013 -23.9013 -23.8718 -23.8718 -23.7944 -23.7944
   -22.9573 -22.9573 -22.8657 -22.8657 -22.8078 -22.8078 -22.7825 -22.7825
   -22.7449 -22.7449 -22.6589 -22.6589 -11.3699 -11.3699  -5.2552  -5.2552
    -2.6401  -2.6401  -2.1725  -2.1725

[...]

          k = 0.3000 0.5196 0.0000 ( 20127 PWs)   bands (ev):

   -23.9190 -23.9182 -23.8938 -23.8918 -23.8608 -23.8593 -23.8089 -23.8081
   -22.9207 -22.9204 -22.8701 -22.8698 -22.8643 -22.8639 -22.7694 -22.7692
   -22.7361 -22.7356 -22.6366 -22.6362  -9.3699  -9.3699  -8.6913  -8.6912
    -4.8192  -4.8192  -2.4042  -2.4041

     highest occupied level (ev):    -2.1725

!    total energy              =    -874.74329290 Ry
     total all-electron energy =    -24705.553238 Ry
     estimated scf accuracy    <       0.00000056 Ry

     The total energy is the sum of the following terms:
     one-electron contribution =    -849.42779379 Ry
     hartree contribution      =     416.41494525 Ry
     xc contribution           =     -54.15055842 Ry
     ewald contribution        =     189.12146528 Ry
     one-center paw contrib.   =    -576.70135122 Ry

     convergence has been achieved in   7 iterations

     Writing all to output data dir ../tmp/stanene.save/

     General routines

     Parallel routines

   This run was terminated on:  22:28:49  23Mar2024

   JOB DONE.