     Program PWSCF v.6.7MaX starts on 25Jan2024 at 10:24:25

     R & G space division:  proc/nbgrp/npool/nimage =       6
     Waiting for input...
     Reading input from standard input

     Current dimensions of program PWSCF are:
     Max number of different atomic species (ntypx) = 10
     Max number of k-points (npk) =  40000
     Max angular momentum in pseudopotentials (lmaxx) =  3

     Message from routine setup:
     using ibrav=0 with symmetry is DISCOURAGED, use correct ibrav instead

     bravais-lattice index     =            0
     lattice parameter (alat)  =       8.8439  a.u.
     unit-cell volume          =    2560.0529 (a.u.)^3
     number of atoms/cell      =            2
     number of atomic types    =            1
     number of electrons       =        28.00
     number of Kohn-Sham states=           18
     kinetic-energy cutoff     =      60.0000  Ry
     charge density cutoff     =     480.0000  Ry
     scf convergence threshold =      4.0E-10
     mixing beta               =       0.4000
     number of iterations used =            8  plain     mixing
     Exchange-correlation= SLA  PW   PBE  PBE
                           (   1   4   3   4   0   0   0)

     celldm(1)=   8.843918  celldm(2)=   0.000000  celldm(3)=   0.000000
     celldm(4)=   0.000000  celldm(5)=   0.000000  celldm(6)=   0.000000

     crystal axes: (cart. coord. in units of alat)
               a(1) = (   1.000000   0.000000   0.000000 )
               a(2) = (  -0.500000   0.866025   0.000000 )
               a(3) = (   0.000000   0.000000   4.273504 )

     reciprocal axes: (cart. coord. in units 2 pi/alat)
               b(1) = (  1.000000  0.577350 -0.000000 )
               b(2) = (  0.000000  1.154701  0.000000 )
               b(3) = (  0.000000 -0.000000  0.234000 )

     PseudoPot. # 1 for Sn read from file:
     ../pseudo/Sn_pbe_v1.uspp.F.UPF
     MD5 check sum: 4cf58ce39ec5d5d420df3dd08604eb00
     Pseudo is Ultrasoft + core correction, Zval = 14.0
     Generated by new atomic code, or converted to UPF format
     Using radial grid of  891 points,  6 beta functions with:
                l(1) =   0
                l(2) =   0
                l(3) =   1
                l(4) =   1
                l(5) =   2
                l(6) =   2
     Q(r) pseudized with  6 coefficients,  rinner =    1.200   1.200   1.200
                                                       1.200   1.200

     atomic species   valence    mass     pseudopotential
        Sn            14.00   118.71000     Sn( 1.00)

     24 Sym. Ops., with inversion, found

                                    s                        frac. trans.

      isym =  1     identity

 cryst.   s( 1) = (     1          0          0      )
                  (     0          1          0      )
                  (     0          0          1      )

 cart.    s( 1) = (  1.0000000  0.0000000  0.0000000 )
                  (  0.0000000  1.0000000  0.0000000 )
                  (  0.0000000  0.0000000  1.0000000 )

      isym =  2     180 deg rotation - cart. axis [0,0,1]

[...]

      isym =  4     180 deg rotation - cart. axis [1,0,0]

[...]

      isym =  5      60 deg rotation - cryst. axis [0,0,1]

[...]

 cryst.   s( 9) = (     0         -1          0      )
                  (    -1          0          0      )
                  (     0          0         -1      )

 cart.    s( 9) = (  0.5000000 -0.8660254  0.0000000 )
                  ( -0.8660254 -0.5000000  0.0000000 )
                  (  0.0000000  0.0000000 -1.0000000 )

[...]

 cryst.   s(10) = (     1          1          0      )
                  (     0         -1          0      )
                  (     0          0         -1      )

 cart.    s(10) = (  0.5000000  0.8660254  0.0000000 )
                  (  0.8660254 -0.5000000  0.0000000 )
                  (  0.0000000  0.0000000 -1.0000000 )

[...]

      isym = 12     180 deg rotation - cryst. axis [1,1,0]

[...]

      isym = 13     inversion

[...]

      isym = 14     inv. 180 deg rotation - cart. axis [0,0,1]

[...]

      isym = 16     inv. 180 deg rotation - cart. axis [1,0,0]

[...]

      isym = 17     inv.  60 deg rotation - cryst. axis [0,0,1]

[...]

      isym = 24     inv. 180 deg rotation - cryst. axis [1,1,0]

 cryst.   s(24) = (     0         -1          0      )
                  (    -1          0          0      )
                  (     0          0          1      )

 cart.    s(24) = (  0.5000000 -0.8660254  0.0000000 )
                  ( -0.8660254 -0.5000000  0.0000000 )
                  (  0.0000000  0.0000000  1.0000000 )

   Cartesian axes

     site n.     atom                  positions (alat units)
         1           Sn  tau(   1) = (   0.0000000   0.5773503   2.1367521  )
         2           Sn  tau(   2) = (   0.5000000   0.2886751   2.1367521  )

   Crystallographic axes

     site n.     atom                  positions (cryst. coord.)
         1           Sn  tau(   1) = (  0.3333333  0.6666667  0.5000000  )
         2           Sn  tau(   2) = (  0.6666667  0.3333333  0.5000000  )

     number of k points=    32  Marzari-Vanderbilt smearing, width (Ry)=  0.0073
                       cart. coord. in units 2pi/alat
        k(    1) = (   0.0000000   0.0000000   0.0000000), wk =   0.0055096
        k(    2) = (   0.0000000   0.0000000   0.0780000), wk =   0.0110193
        k(    3) = (   0.0000000   0.1049728   0.0000000), wk =   0.0330579
        k(    4) = (   0.0000000   0.1049728   0.0780000), wk =   0.0661157
        k(    5) = (   0.0000000   0.2099456   0.0000000), wk =   0.0330579
        k(    6) = (   0.0000000   0.2099456   0.0780000), wk =   0.0661157
        k(    7) = (   0.0000000   0.3149183   0.0000000), wk =   0.0330579
        k(    8) = (   0.0000000   0.3149183   0.0780000), wk =   0.0661157
        k(    9) = (   0.0000000   0.4198911   0.0000000), wk =   0.0330579
        k(   10) = (   0.0000000   0.4198911   0.0780000), wk =   0.0661157
        k(   11) = (   0.0000000   0.5248639   0.0000000), wk =   0.0330579
        k(   12) = (   0.0000000   0.5248639   0.0780000), wk =   0.0661157
        k(   13) = (   0.0909091   0.1574592   0.0000000), wk =   0.0330579
        k(   14) = (   0.0909091   0.1574592   0.0780000), wk =   0.0661157
        k(   15) = (   0.0909091   0.2624319   0.0000000), wk =   0.0661157
        k(   16) = (   0.0909091   0.2624319   0.0780000), wk =   0.1322314
        k(   17) = (   0.0909091   0.3674047   0.0000000), wk =   0.0661157
        k(   18) = (   0.0909091   0.3674047   0.0780000), wk =   0.1322314
        k(   19) = (   0.0909091   0.4723775   0.0000000), wk =   0.0661157
        k(   20) = (   0.0909091   0.4723775   0.0780000), wk =   0.1322314
        k(   21) = (   0.0909091   0.5773503   0.0000000), wk =   0.0330579
        k(   22) = (   0.0909091   0.5773503   0.0780000), wk =   0.0661157
        k(   23) = (   0.1818182   0.3149183   0.0000000), wk =   0.0330579
        k(   24) = (   0.1818182   0.3149183   0.0780000), wk =   0.0661157
        k(   25) = (   0.1818182   0.4198911   0.0000000), wk =   0.0661157
        k(   26) = (   0.1818182   0.4198911   0.0780000), wk =   0.1322314
        k(   27) = (   0.1818182   0.5248639   0.0000000), wk =   0.0661157
        k(   28) = (   0.1818182   0.5248639   0.0780000), wk =   0.1322314
        k(   29) = (   0.2727273   0.4723775   0.0000000), wk =   0.0330579
        k(   30) = (   0.2727273   0.4723775   0.0780000), wk =   0.0661157
        k(   31) = (   0.2727273   0.5773503   0.0000000), wk =   0.0330579
        k(   32) = (   0.2727273   0.5773503   0.0780000), wk =   0.0661157

                       cryst. coord.
        k(    1) = (   0.0000000   0.0000000   0.0000000), wk =   0.0055096
        k(    2) = (   0.0000000   0.0000000   0.3333333), wk =   0.0110193
        k(    3) = (   0.0000000   0.0909091   0.0000000), wk =   0.0330579
        k(    4) = (   0.0000000   0.0909091   0.3333333), wk =   0.0661157
        k(    5) = (   0.0000000   0.1818182   0.0000000), wk =   0.0330579
        k(    6) = (   0.0000000   0.1818182   0.3333333), wk =   0.0661157
        k(    7) = (   0.0000000   0.2727273   0.0000000), wk =   0.0330579
        k(    8) = (   0.0000000   0.2727273   0.3333333), wk =   0.0661157
        k(    9) = (   0.0000000   0.3636364   0.0000000), wk =   0.0330579
        k(   10) = (   0.0000000   0.3636364   0.3333333), wk =   0.0661157
        k(   11) = (   0.0000000   0.4545455   0.0000000), wk =   0.0330579
        k(   12) = (   0.0000000   0.4545455   0.3333333), wk =   0.0661157
        k(   13) = (   0.0909091   0.0909091   0.0000000), wk =   0.0330579
        k(   14) = (   0.0909091   0.0909091   0.3333333), wk =   0.0661157
        k(   15) = (   0.0909091   0.1818182   0.0000000), wk =   0.0661157
        k(   16) = (   0.0909091   0.1818182   0.3333333), wk =   0.1322314
        k(   17) = (   0.0909091   0.2727273   0.0000000), wk =   0.0661157
        k(   18) = (   0.0909091   0.2727273   0.3333333), wk =   0.1322314
        k(   19) = (   0.0909091   0.3636364   0.0000000), wk =   0.0661157
        k(   20) = (   0.0909091   0.3636364   0.3333333), wk =   0.1322314
        k(   21) = (   0.0909091   0.4545455   0.0000000), wk =   0.0330579
        k(   22) = (   0.0909091   0.4545455   0.3333333), wk =   0.0661157
        k(   23) = (   0.1818182   0.1818182   0.0000000), wk =   0.0330579
        k(   24) = (   0.1818182   0.1818182   0.3333333), wk =   0.0661157
        k(   25) = (   0.1818182   0.2727273   0.0000000), wk =   0.0661157
        k(   26) = (   0.1818182   0.2727273   0.3333333), wk =   0.1322314
        k(   27) = (   0.1818182   0.3636364   0.0000000), wk =   0.0661157
        k(   28) = (   0.1818182   0.3636364   0.3333333), wk =   0.1322314
        k(   29) = (   0.2727273   0.2727273   0.0000000), wk =   0.0330579
        k(   30) = (   0.2727273   0.2727273   0.3333333), wk =   0.0661157
        k(   31) = (   0.2727273   0.3636364   0.0000000), wk =   0.0330579
        k(   32) = (   0.2727273   0.3636364   0.3333333), wk =   0.0661157

     Initial potential from superposition of free atoms

     starting charge   25.99991, renormalised to   28.00000

     negative rho (up, down):  6.140E-04 0.000E+00
     Starting wfcs are   18 randomized atomic wfcs

     Self-consistent Calculation

     iteration #  1     ecut=    60.00 Ry     beta= 0.40
     Davidson diagonalization with overlap
     ethr =  1.00E-02,  avg # of iterations =  7.4

     negative rho (up, down):  4.161E-05 0.000E+00

     total energy              =    -326.05056068 Ry
     estimated scf accuracy    <       2.48493456 Ry

[...]

     total energy              =    -326.39232523 Ry
     estimated scf accuracy    <          6.4E-09 Ry

     iteration # 10     ecut=    60.00 Ry     beta= 0.40
     Davidson diagonalization with overlap
     ethr =  2.28E-11,  avg # of iterations =  2.8

[...]

     End of self-consistent calculation

          k = 0.0000 0.0000 0.0000 ( 20001 PWs)   bands (ev):

   -24.0753 -24.0513 -24.0513 -23.9561 -23.9561 -23.7880 -23.7880 -23.7239
   -23.7239 -23.6680 -12.1804  -4.2761  -3.6507  -3.3126  -3.3126   0.7052
     0.7052   1.0131

     occupation numbers
     1.0000   1.0000   1.0000   1.0000   1.0000   1.0000   1.0000   1.0000
     1.0000   1.0000   1.0000   1.0000   1.0000   1.0000   1.0000   0.0000
     0.0000   0.0000

[...]

          k = 0.2727 0.5774 0.0780 ( 20114 PWs)   bands (ev):

   -24.2942 -24.1150 -24.0859 -23.9873 -23.8588 -23.8270 -23.6938 -23.6914
   -23.6746 -23.5119 -10.0455  -9.5018  -5.7402  -2.1577  -1.6390   1.1880
     2.2227   2.4705

     occupation numbers
     1.0000   1.0000   1.0000   1.0000   1.0000   1.0000   1.0000   1.0000
     1.0000   1.0000   1.0000   1.0000   1.0000   0.0569   0.0000   0.0000
     0.0000   0.0000

     the Fermi energy is    -2.2381 ev

!    total energy              =    -326.39232519 Ry
     estimated scf accuracy    <          6.6E-11 Ry
     smearing contrib. (-TS)   =      -0.00008918 Ry
     internal energy E=F+TS    =    -326.39223601 Ry

     The total energy is F=E-TS. E is the sum of the following terms:
     one-electron contribution =    -882.96174531 Ry
     hartree contribution      =     448.66775748 Ry
     xc contribution           =     -95.07655196 Ry
     ewald contribution        =     202.97830378 Ry

     convergence has been achieved in  10 iterations

     negative rho (up, down):  8.414E-05 0.000E+00

     Forces acting on atoms (cartesian axes, Ry/au):

     atom    1 type  1   force =    -0.00000000    0.00000000    0.00000000
     atom    2 type  1   force =     0.00000000   -0.00000000    0.00000000
     The non-local contrib.  to forces
     atom    1 type  1   force =     0.00000000   -0.00000000    0.00000000
     atom    2 type  1   force =     0.00000000    0.00000000    0.00000000
     The ionic contribution  to forces
     atom    1 type  1   force =    -0.00000003    0.00000002    0.00000000
     atom    2 type  1   force =     0.00000003   -0.00000002    0.00000000
     The local contribution  to forces
     atom    1 type  1   force =    -0.00000000    0.00000041    0.00000000
     atom    2 type  1   force =     0.00000035    0.00000020    0.00000000
     The core correction contribution to forces
     atom    1 type  1   force =    -0.00000000    0.00000004    0.00000000
     atom    2 type  1   force =     0.00000004    0.00000002    0.00000000
     The Hubbard contrib.    to forces
     atom    1 type  1   force =     0.00000000    0.00000000    0.00000000
     atom    2 type  1   force =     0.00000000    0.00000000    0.00000000
     The SCF correction term to forces
     atom    1 type  1   force =    -0.00000000    0.00000000   -0.00000000
     atom    2 type  1   force =     0.00000000    0.00000000   -0.00000000

     Total force =     0.000000     Total SCF correction =     0.000000

     Computing stress (Cartesian axis) and pressure

     negative rho (up, down):  8.414E-05 0.000E+00
          total   stress  (Ry/bohr**3)                   (kbar)     P=        5.25
   0.00005360  -0.00000000   0.00000000            7.88       -0.00        0.00
   0.00000000   0.00005360  -0.00000000            0.00        7.88       -0.00
   0.00000000  -0.00000000  -0.00000019            0.00       -0.00       -0.03

     kinetic stress (kbar)   1596.86      0.00      0.00
                                0.00   1596.86     -0.00
                               -0.00      0.00   1638.14

     local   stress (kbar) -43210.43      0.00      0.00
                                0.00 -43210.43     -0.00
                                0.00     -0.00  44099.21

     nonloc. stress (kbar)    995.94      0.00     -0.00
                                0.00    995.94      0.00
                                0.00      0.00    982.29

     hartree stress (kbar)  22602.32     -0.00     -0.00
                               -0.00  22602.32     -0.00
                               -0.00     -0.00 -19423.42

     exc-cor stress (kbar)   2338.29     -0.00     -0.00
                               -0.00   2338.29      0.00
                               -0.00      0.00   2333.94

     corecor stress (kbar)  -3308.24      0.00      0.00
                                0.00  -3308.24     -0.00
                                0.00     -0.00  -3307.38

     ewald   stress (kbar)  18993.15     -0.00      0.00
                               -0.00  18993.15      0.00
                                0.00      0.00 -26322.81

     hubbard stress (kbar)      0.00      0.00      0.00
                                0.00      0.00      0.00
                                0.00      0.00      0.00

     DFT-D   stress (kbar)      0.00      0.00      0.00
                                0.00      0.00      0.00
                                0.00      0.00      0.00

     XDM     stress (kbar)      0.00      0.00      0.00
                                0.00      0.00      0.00
                                0.00      0.00      0.00

     dft-nl  stress (kbar)      0.00      0.00      0.00
                                0.00      0.00      0.00
                                0.00      0.00      0.00

     TS-vdW  stress (kbar)      0.00      0.00      0.00
                                0.00      0.00      0.00
                                0.00      0.00      0.00

     Writing output data file ../tmp/stanene.save/

     General routines

     Parallel routines

   This run was terminated on:  10:26:28  25Jan2024

   JOB DONE.