     Program PWSCF v.6.7MaX starts on 19Jan2024 at 21:24:41

     R & G space division:  proc/nbgrp/npool/nimage =       6
     Waiting for input...
     Reading input from standard input

     Current dimensions of program PWSCF are:
     Max number of different atomic species (ntypx) = 10
     Max number of k-points (npk) =  40000
     Max angular momentum in pseudopotentials (lmaxx) =  3

     bravais-lattice index     =            4
     lattice parameter (alat)  =       8.8439  a.u.
     unit-cell volume          =    2560.0529 (a.u.)^3
     number of atoms/cell      =            2
     number of atomic types    =            1
     number of electrons       =        28.00
     number of Kohn-Sham states=           18
     kinetic-energy cutoff     =      60.0000  Ry
     charge density cutoff     =     240.0000  Ry
     scf convergence threshold =      1.0E-09
     mixing beta               =       0.7000
     number of iterations used =            8  plain     mixing
     energy convergence thresh.=      1.0E-05
     force convergence thresh. =      1.0E-04
     Exchange-correlation= SLA  PW   PBE  PBE
                           (   1   4   3   4   0   0   0)
     nstep                     =           50

     celldm(1)=   8.843918  celldm(2)=   0.000000  celldm(3)=   4.273504
     celldm(4)=   0.000000  celldm(5)=   0.000000  celldm(6)=   0.000000

     crystal axes: (cart. coord. in units of alat)
               a(1) = (   1.000000   0.000000   0.000000 )
               a(2) = (  -0.500000   0.866025   0.000000 )
               a(3) = (   0.000000   0.000000   4.273504 )

     reciprocal axes: (cart. coord. in units 2 pi/alat)
               b(1) = (  1.000000  0.577350 -0.000000 )
               b(2) = (  0.000000  1.154701  0.000000 )
               b(3) = (  0.000000 -0.000000  0.234000 )

     PseudoPot. # 1 for Sn read from file:
     ../pseudo/Sn_pbe_v1.uspp.F.UPF
     MD5 check sum: 4cf58ce39ec5d5d420df3dd08604eb00
     Pseudo is Ultrasoft + core correction, Zval = 14.0
     Generated by new atomic code, or converted to UPF format
     Using radial grid of  891 points,  6 beta functions with:
                l(1) =   0
                l(2) =   0
                l(3) =   1
                l(4) =   1
                l(5) =   2
                l(6) =   2
     Q(r) pseudized with  6 coefficients,  rinner =    1.200   1.200   1.200
                                                       1.200   1.200

     atomic species   valence    mass     pseudopotential
        Sn            14.00   118.71000     Sn( 1.00)

      6 Sym. Ops. (no inversion) found

   Cartesian axes

     site n.     atom                  positions (alat units)
         1           Sn  tau(   1) = (   0.0000000   0.5773503   2.1367521  )
         2           Sn  tau(   2) = (   0.5000000   0.2886751   1.7094017  )

     number of k points=    61  Marzari-Vanderbilt smearing, width (Ry)=  0.0200
                       cart. coord. in units 2pi/alat
        k(    1) = (   0.0000000   0.0000000   0.0000000), wk =   0.0034722
        k(    2) = (   0.0000000   0.0481125   0.0000000), wk =   0.0208333
        k(    3) = (   0.0000000   0.0962250   0.0000000), wk =   0.0208333
        k(    4) = (   0.0000000   0.1443376   0.0000000), wk =   0.0208333
        k(    5) = (   0.0000000   0.1924501   0.0000000), wk =   0.0208333
        k(    6) = (   0.0000000   0.2405626   0.0000000), wk =   0.0208333
        k(    7) = (   0.0000000   0.2886751   0.0000000), wk =   0.0208333
        k(    8) = (   0.0000000   0.3367877   0.0000000), wk =   0.0208333
        k(    9) = (   0.0000000   0.3849002   0.0000000), wk =   0.0208333
        k(   10) = (   0.0000000   0.4330127   0.0000000), wk =   0.0208333
        k(   11) = (   0.0000000   0.4811252   0.0000000), wk =   0.0208333
        k(   12) = (   0.0000000   0.5292377   0.0000000), wk =   0.0208333
        k(   13) = (   0.0000000  -0.5773503   0.0000000), wk =   0.0104167
        k(   14) = (   0.0416667   0.0721688   0.0000000), wk =   0.0208333
        k(   15) = (   0.0416667   0.1202813   0.0000000), wk =   0.0416667
        k(   16) = (   0.0416667   0.1683938   0.0000000), wk =   0.0416667
        k(   17) = (   0.0416667   0.2165064   0.0000000), wk =   0.0416667
        k(   18) = (   0.0416667   0.2646189   0.0000000), wk =   0.0416667
        k(   19) = (   0.0416667   0.3127314   0.0000000), wk =   0.0416667
        k(   20) = (   0.0416667   0.3608439   0.0000000), wk =   0.0416667
        k(   21) = (   0.0416667   0.4089564   0.0000000), wk =   0.0416667
        k(   22) = (   0.0416667   0.4570690   0.0000000), wk =   0.0416667
        k(   23) = (   0.0416667   0.5051815   0.0000000), wk =   0.0416667
        k(   24) = (   0.0416667   0.5532940   0.0000000), wk =   0.0416667
        k(   25) = (   0.0833333   0.1443376   0.0000000), wk =   0.0208333
        k(   26) = (   0.0833333   0.1924501   0.0000000), wk =   0.0416667
        k(   27) = (   0.0833333   0.2405626   0.0000000), wk =   0.0416667
        k(   28) = (   0.0833333   0.2886751   0.0000000), wk =   0.0416667
        k(   29) = (   0.0833333   0.3367877   0.0000000), wk =   0.0416667
        k(   30) = (   0.0833333   0.3849002   0.0000000), wk =   0.0416667
        k(   31) = (   0.0833333   0.4330127   0.0000000), wk =   0.0416667
        k(   32) = (   0.0833333   0.4811252   0.0000000), wk =   0.0416667
        k(   33) = (   0.0833333   0.5292377   0.0000000), wk =   0.0416667
        k(   34) = (   0.0833333   0.5773503   0.0000000), wk =   0.0208333
        k(   35) = (   0.1250000   0.2165064   0.0000000), wk =   0.0208333
        k(   36) = (   0.1250000   0.2646189   0.0000000), wk =   0.0416667
        k(   37) = (   0.1250000   0.3127314   0.0000000), wk =   0.0416667
        k(   38) = (   0.1250000   0.3608439   0.0000000), wk =   0.0416667
        k(   39) = (   0.1250000   0.4089564   0.0000000), wk =   0.0416667
        k(   40) = (   0.1250000   0.4570690   0.0000000), wk =   0.0416667
        k(   41) = (   0.1250000   0.5051815   0.0000000), wk =   0.0416667
        k(   42) = (   0.1250000   0.5532940   0.0000000), wk =   0.0416667
        k(   43) = (   0.1666667   0.2886751   0.0000000), wk =   0.0208333
        k(   44) = (   0.1666667   0.3367877   0.0000000), wk =   0.0416667
        k(   45) = (   0.1666667   0.3849002   0.0000000), wk =   0.0416667
        k(   46) = (   0.1666667   0.4330127   0.0000000), wk =   0.0416667
        k(   47) = (   0.1666667   0.4811252   0.0000000), wk =   0.0416667
        k(   48) = (   0.1666667   0.5292377   0.0000000), wk =   0.0416667
        k(   49) = (   0.1666667   0.5773503   0.0000000), wk =   0.0208333
        k(   50) = (   0.2083333   0.3608439   0.0000000), wk =   0.0208333
        k(   51) = (   0.2083333   0.4089564   0.0000000), wk =   0.0416667
        k(   52) = (   0.2083333   0.4570690   0.0000000), wk =   0.0416667
        k(   53) = (   0.2083333   0.5051815   0.0000000), wk =   0.0416667
        k(   54) = (   0.2083333   0.5532940   0.0000000), wk =   0.0416667
        k(   55) = (   0.2500000   0.4330127   0.0000000), wk =   0.0208333
        k(   56) = (   0.2500000   0.4811252   0.0000000), wk =   0.0416667
        k(   57) = (   0.2500000   0.5292377   0.0000000), wk =   0.0416667
        k(   58) = (   0.2500000   0.5773503   0.0000000), wk =   0.0208333
        k(   59) = (   0.2916667   0.5051815   0.0000000), wk =   0.0208333
        k(   60) = (   0.2916667   0.5532940   0.0000000), wk =   0.0416667
        k(   61) = (   0.3333333   0.5773503   0.0000000), wk =   0.0069444

     Initial potential from superposition of free atoms

     starting charge   25.99991, renormalised to   28.00000

     negative rho (up, down):  4.192E-03 0.000E+00
     Starting wfcs are   18 randomized atomic wfcs

     Self-consistent Calculation

     iteration #  1     ecut=    60.00 Ry     beta= 0.70
     Davidson diagonalization with overlap
     ethr =  1.00E-02,  avg # of iterations =  6.3

     negative rho (up, down):  1.367E-03 0.000E+00

     total energy              =    -325.37839580 Ry
     estimated scf accuracy    <       2.51976501 Ry

[...]

     iteration #  5     ecut=    60.00 Ry     beta= 0.70
     Davidson diagonalization with overlap
     c_bands:  1 eigenvalues not converged
     ethr =  5.53E-06,  avg # of iterations =  5.3

[...]

     End of self-consistent calculation

          k = 0.0000 0.0000 0.0000 ( 20001 PWs)   bands (ev):

   -23.4266 -23.4266 -23.3907 -23.3858 -23.3858 -23.3464 -23.3437 -23.3437
   -23.3158 -23.3158  -9.9828  -7.0769  -1.9503  -0.9353  -0.9353  -0.2829
     0.9014   1.4209

[...]

     the Fermi energy is    -2.0914 ev

!    total energy              =    -326.33416752 Ry
     estimated scf accuracy    <          1.5E-10 Ry
     smearing contrib. (-TS)   =      -0.00070771 Ry
     internal energy E=F+TS    =    -326.33345982 Ry

     The total energy is F=E-TS. E is the sum of the following terms:
     one-electron contribution =    -762.98373823 Ry
     hartree contribution      =     389.16030203 Ry
     xc contribution           =     -94.73444950 Ry
     ewald contribution        =     142.22442588 Ry

     convergence has been achieved in  11 iterations

[...]

     Forces acting on atoms (cartesian axes, Ry/au):

     atom    1 type  1   force =     0.00000000    0.00000000   -0.04442060
     atom    2 type  1   force =     0.00000000   -0.00000000    0.04442060

     Total force =     0.044421     Total SCF correction =     0.000006

     BFGS Geometry Optimization
     Energy error            =      0.0E+00
     Gradient error          =      4.4E-02

     number of scf cycles    =   1
     number of bfgs steps    =   0

     energy   new            =    -326.3341675249 Ry

     new trust radius        =       0.0444205997 bohr
     new conv_thr            =       0.0000000010 Ry

ATOMIC_POSITIONS (crystal)
Sn            0.3333333330        0.6666666660        0.5000000000    0   0   0
Sn            0.6666666660        0.3333333330        0.4011753185

     Writing output data file ../tmp/stanene.save/
     NEW-OLD atomic charge density approx. for the potential

[...]

     Total force =     0.045062     Total SCF correction =     0.000017
     Energy error            =      2.0E-03
     Gradient error          =      4.5E-02

[...]

     energy   old            =    -326.3341675249 Ry
     energy   new            =    -326.3361562616 Ry

     CASE: energy  _new < energy  _old

     WARNING: bfgs curvature condition failed, Theta= 0.789
     new trust radius        =       0.0488626597 bohr
     new conv_thr            =       0.0000000010 Ry

[...]

     WARNING: bfgs curvature condition failed, Theta= 0.614
     uphill step: resetting bfgs history

[...]

     WARNING: bfgs curvature condition failed, Theta= 0.423
     new trust radius        =       0.1856005537 bohr
     new conv_thr            =       0.0000000010 Ry

[...]

     iteration #  4     ecut=    60.00 Ry     beta= 0.70
     Davidson diagonalization with overlap
     c_bands:  1 eigenvalues not converged
     ethr =  3.54E-06,  avg # of iterations = 10.0

[...]

     Total force =     0.004043     Total SCF correction =     0.000086
     Energy error            =      8.5E-03
     Gradient error          =      4.0E-03

[...]

     Total force =     0.000019     Total SCF correction =     0.000071
     SCF correction compared to forces is large: reduce conv_thr to get better values
     Energy error            =      1.5E-04
     Gradient error          =      1.9E-05

     number of scf cycles    =  15
     number of bfgs steps    =  14

     energy   old            =    -326.4186149527 Ry
     energy   new            =    -326.4187630005 Ry

     CASE: energy  _new < energy  _old

     new trust radius        =       0.0003372110 bohr
     new conv_thr            =            1.0E-11 Ry

ATOMIC_POSITIONS (crystal)
Sn            0.3333333330        0.6666666660        0.5000000000    0   0   0
Sn            0.6666666660        0.3333333330        0.4578734224

     Writing output data file ../tmp/stanene.save/
     NEW-OLD atomic charge density approx. for the potential

[...]

     Self-consistent Calculation

[...]

     Threshold (ethr) on eigenvalues was too large:
     Diagonalizing with lowered threshold

     Davidson diagonalization with overlap
     ethr =  1.78E-10,  avg # of iterations =  2.9

[...]

     total energy              =    -326.41876300 Ry
     estimated scf accuracy    <          6.8E-11 Ry

     iteration #  5     ecut=    60.00 Ry     beta= 0.70
     Davidson diagonalization with overlap
     ethr =  2.45E-13,  avg # of iterations =  2.0

[...]

     End of self-consistent calculation

[...]

          k = 0.3333 0.5774 0.0000 ( 20085 PWs)   bands (ev):

   -23.5687 -23.5104 -23.5104 -23.3809 -23.3166 -23.3134 -23.3134 -23.2306
   -23.2306 -23.0553  -9.0345  -9.0345  -4.8664  -2.1262  -2.1262   1.6347
     2.7014   2.7015

     the Fermi energy is    -2.2622 ev

!    total energy              =    -326.41876300 Ry
     estimated scf accuracy    <          5.2E-12 Ry
     smearing contrib. (-TS)   =       0.00132502 Ry
     internal energy E=F+TS    =    -326.42008802 Ry

     The total energy is F=E-TS. E is the sum of the following terms:
     one-electron contribution =    -857.38985893 Ry
     hartree contribution      =     436.39038670 Ry
     xc contribution           =     -95.00877332 Ry
     ewald contribution        =     189.58815754 Ry

     convergence has been achieved in   5 iterations

     negative rho (up, down):  3.613E-03 0.000E+00

     Forces acting on atoms (cartesian axes, Ry/au):

     atom    1 type  1   force =     0.00000000    0.00000000   -0.00000708
     atom    2 type  1   force =     0.00000000    0.00000000    0.00000708

     Total force =     0.000007     Total SCF correction =     0.000013
     SCF correction compared to forces is large: reduce conv_thr to get better values
     Energy error            =      6.7E-10
     Gradient error          =      7.1E-06

     bfgs converged in  16 scf cycles and  15 bfgs steps
     (criteria: energy <  1.0E-05 Ry, force <  1.0E-04 Ry/Bohr)

     End of BFGS Geometry Optimization

     Final energy   =    -326.4187629998 Ry

     File ../tmp/stanene.bfgs deleted, as requested
Begin final coordinates

ATOMIC_POSITIONS (crystal)
Sn            0.3333333330        0.6666666660        0.5000000000    0   0   0
Sn            0.6666666660        0.3333333330        0.4578734224
End final coordinates

     Writing output data file ../tmp/stanene.save/

     General routines

     Parallel routines

   This run was terminated on:  22: 3:34  19Jan2024

   JOB DONE.