     Program PWSCF v.6.7MaX starts on 22Jan2024 at 10:30:49

     R & G space division:  proc/nbgrp/npool/nimage =       6
     Waiting for input...
     Reading input from standard input

     Current dimensions of program PWSCF are:
     Max number of different atomic species (ntypx) = 10
     Max number of k-points (npk) =  40000
     Max angular momentum in pseudopotentials (lmaxx) =  3

     bravais-lattice index     =            4
     lattice parameter (alat)  =       8.8439  a.u.
     unit-cell volume          =    2560.0529 (a.u.)^3
     number of atoms/cell      =            2
     number of atomic types    =            1
     number of electrons       =        28.00
     number of Kohn-Sham states=           18
     kinetic-energy cutoff     =      60.0000  Ry
     charge density cutoff     =     240.0000  Ry
     scf convergence threshold =      1.0E-09
     mixing beta               =       0.7000
     number of iterations used =            8  plain     mixing
     energy convergence thresh.=      1.0E-05
     force convergence thresh. =      1.0E-04
     press convergence thresh. =      5.0E-02
     Exchange-correlation= SLA  PW   PBE  PBE
                           (   1   4   3   4   0   0   0)
     nstep                     =           50

     celldm(1)=   8.843918  celldm(2)=   0.000000  celldm(3)=   4.273504
     celldm(4)=   0.000000  celldm(5)=   0.000000  celldm(6)=   0.000000

     crystal axes: (cart. coord. in units of alat)
               a(1) = (   1.000000   0.000000   0.000000 )
               a(2) = (  -0.500000   0.866025   0.000000 )
               a(3) = (   0.000000   0.000000   4.273504 )

     reciprocal axes: (cart. coord. in units 2 pi/alat)
               b(1) = (  1.000000  0.577350 -0.000000 )
               b(2) = (  0.000000  1.154701  0.000000 )
               b(3) = (  0.000000 -0.000000  0.234000 )

     PseudoPot. # 1 for Sn read from file:
     ../pseudo/Sn_pbe_v1.uspp.F.UPF
     MD5 check sum: 4cf58ce39ec5d5d420df3dd08604eb00
     Pseudo is Ultrasoft + core correction, Zval = 14.0
     Generated by new atomic code, or converted to UPF format
     Using radial grid of  891 points,  6 beta functions with:
                l(1) =   0
                l(2) =   0
                l(3) =   1
                l(4) =   1
                l(5) =   2
                l(6) =   2
     Q(r) pseudized with  6 coefficients,  rinner =    1.200   1.200   1.200
                                                       1.200   1.200

     atomic species   valence    mass     pseudopotential
        Sn            14.00   118.71000     Sn( 1.00)

      6 Sym. Ops. (no inversion) found

   Cartesian axes

     site n.     atom                  positions (alat units)
         1           Sn  tau(   1) = (   0.0000000   0.5773503   2.1367521  )
         2           Sn  tau(   2) = (   0.5000000   0.2886751   1.7094017  )

     number of k points=    61  Marzari-Vanderbilt smearing, width (Ry)=  0.0200
                       cart. coord. in units 2pi/alat
        k(    1) = (   0.0000000   0.0000000   0.0000000), wk =   0.0034722
        k(    2) = (   0.0000000   0.0481125   0.0000000), wk =   0.0208333
        k(    3) = (   0.0000000   0.0962250   0.0000000), wk =   0.0208333
        k(    4) = (   0.0000000   0.1443376   0.0000000), wk =   0.0208333
        k(    5) = (   0.0000000   0.1924501   0.0000000), wk =   0.0208333
        k(    6) = (   0.0000000   0.2405626   0.0000000), wk =   0.0208333
        k(    7) = (   0.0000000   0.2886751   0.0000000), wk =   0.0208333
        k(    8) = (   0.0000000   0.3367877   0.0000000), wk =   0.0208333
        k(    9) = (   0.0000000   0.3849002   0.0000000), wk =   0.0208333
        k(   10) = (   0.0000000   0.4330127   0.0000000), wk =   0.0208333
        k(   11) = (   0.0000000   0.4811252   0.0000000), wk =   0.0208333
        k(   12) = (   0.0000000   0.5292377   0.0000000), wk =   0.0208333
        k(   13) = (   0.0000000  -0.5773503   0.0000000), wk =   0.0104167
        k(   14) = (   0.0416667   0.0721688   0.0000000), wk =   0.0208333
        k(   15) = (   0.0416667   0.1202813   0.0000000), wk =   0.0416667
        k(   16) = (   0.0416667   0.1683938   0.0000000), wk =   0.0416667
        k(   17) = (   0.0416667   0.2165064   0.0000000), wk =   0.0416667
        k(   18) = (   0.0416667   0.2646189   0.0000000), wk =   0.0416667
        k(   19) = (   0.0416667   0.3127314   0.0000000), wk =   0.0416667
        k(   20) = (   0.0416667   0.3608439   0.0000000), wk =   0.0416667
        k(   21) = (   0.0416667   0.4089564   0.0000000), wk =   0.0416667
        k(   22) = (   0.0416667   0.4570690   0.0000000), wk =   0.0416667
        k(   23) = (   0.0416667   0.5051815   0.0000000), wk =   0.0416667
        k(   24) = (   0.0416667   0.5532940   0.0000000), wk =   0.0416667
        k(   25) = (   0.0833333   0.1443376   0.0000000), wk =   0.0208333
        k(   26) = (   0.0833333   0.1924501   0.0000000), wk =   0.0416667
        k(   27) = (   0.0833333   0.2405626   0.0000000), wk =   0.0416667
        k(   28) = (   0.0833333   0.2886751   0.0000000), wk =   0.0416667
        k(   29) = (   0.0833333   0.3367877   0.0000000), wk =   0.0416667
        k(   30) = (   0.0833333   0.3849002   0.0000000), wk =   0.0416667
        k(   31) = (   0.0833333   0.4330127   0.0000000), wk =   0.0416667
        k(   32) = (   0.0833333   0.4811252   0.0000000), wk =   0.0416667
        k(   33) = (   0.0833333   0.5292377   0.0000000), wk =   0.0416667
        k(   34) = (   0.0833333   0.5773503   0.0000000), wk =   0.0208333
        k(   35) = (   0.1250000   0.2165064   0.0000000), wk =   0.0208333
        k(   36) = (   0.1250000   0.2646189   0.0000000), wk =   0.0416667
        k(   37) = (   0.1250000   0.3127314   0.0000000), wk =   0.0416667
        k(   38) = (   0.1250000   0.3608439   0.0000000), wk =   0.0416667
        k(   39) = (   0.1250000   0.4089564   0.0000000), wk =   0.0416667
        k(   40) = (   0.1250000   0.4570690   0.0000000), wk =   0.0416667
        k(   41) = (   0.1250000   0.5051815   0.0000000), wk =   0.0416667
        k(   42) = (   0.1250000   0.5532940   0.0000000), wk =   0.0416667
        k(   43) = (   0.1666667   0.2886751   0.0000000), wk =   0.0208333
        k(   44) = (   0.1666667   0.3367877   0.0000000), wk =   0.0416667
        k(   45) = (   0.1666667   0.3849002   0.0000000), wk =   0.0416667
        k(   46) = (   0.1666667   0.4330127   0.0000000), wk =   0.0416667
        k(   47) = (   0.1666667   0.4811252   0.0000000), wk =   0.0416667
        k(   48) = (   0.1666667   0.5292377   0.0000000), wk =   0.0416667
        k(   49) = (   0.1666667   0.5773503   0.0000000), wk =   0.0208333
        k(   50) = (   0.2083333   0.3608439   0.0000000), wk =   0.0208333
        k(   51) = (   0.2083333   0.4089564   0.0000000), wk =   0.0416667
        k(   52) = (   0.2083333   0.4570690   0.0000000), wk =   0.0416667
        k(   53) = (   0.2083333   0.5051815   0.0000000), wk =   0.0416667
        k(   54) = (   0.2083333   0.5532940   0.0000000), wk =   0.0416667
        k(   55) = (   0.2500000   0.4330127   0.0000000), wk =   0.0208333
        k(   56) = (   0.2500000   0.4811252   0.0000000), wk =   0.0416667
        k(   57) = (   0.2500000   0.5292377   0.0000000), wk =   0.0416667
        k(   58) = (   0.2500000   0.5773503   0.0000000), wk =   0.0208333
        k(   59) = (   0.2916667   0.5051815   0.0000000), wk =   0.0208333
        k(   60) = (   0.2916667   0.5532940   0.0000000), wk =   0.0416667
        k(   61) = (   0.3333333   0.5773503   0.0000000), wk =   0.0069444

     Initial potential from superposition of free atoms

     starting charge   25.99991, renormalised to   28.00000

     negative rho (up, down):  4.192E-03 0.000E+00
     Starting wfcs are   18 randomized atomic wfcs

     Self-consistent Calculation

     iteration #  1     ecut=    60.00 Ry     beta= 0.70
     Davidson diagonalization with overlap
     ethr =  1.00E-02,  avg # of iterations =  6.3

     negative rho (up, down):  1.367E-03 0.000E+00

     total energy              =    -325.37839580 Ry
     estimated scf accuracy    <       2.51976501 Ry

[...]

     iteration #  5     ecut=    60.00 Ry     beta= 0.70
     Davidson diagonalization with overlap
     c_bands:  1 eigenvalues not converged
     ethr =  5.53E-06,  avg # of iterations =  5.3

[...]

     End of self-consistent calculation

          k = 0.0000 0.0000 0.0000 ( 20001 PWs)   bands (ev):

   -23.4266 -23.4266 -23.3907 -23.3858 -23.3858 -23.3464 -23.3437 -23.3437
   -23.3158 -23.3158  -9.9828  -7.0769  -1.9503  -0.9353  -0.9353  -0.2829
     0.9014   1.4209

[...]

     the Fermi energy is    -2.0914 ev

!    total energy              =    -326.33416752 Ry
     estimated scf accuracy    <          1.5E-10 Ry
     smearing contrib. (-TS)   =      -0.00070771 Ry
     internal energy E=F+TS    =    -326.33345982 Ry

     The total energy is F=E-TS. E is the sum of the following terms:
     one-electron contribution =    -762.98373823 Ry
     hartree contribution      =     389.16030203 Ry
     xc contribution           =     -94.73444950 Ry
     ewald contribution        =     142.22442588 Ry

     convergence has been achieved in  11 iterations

[...]

     Forces acting on atoms (cartesian axes, Ry/au):

     atom    1 type  1   force =     0.00000000   -0.00000000   -0.04442060
     atom    2 type  1   force =     0.00000000    0.00000000    0.04442060

     Total force =     0.044421     Total SCF correction =     0.000006

     Computing stress (Cartesian axis) and pressure

     negative rho (up, down):  3.058E-03 0.000E+00
          total   stress  (Ry/bohr**3)                   (kbar)     P=      -12.84
  -0.00009857   0.00000000   0.00000000          -14.50        0.00        0.00
   0.00000000  -0.00009857   0.00000000            0.00      -14.50        0.00
   0.00000000   0.00000000  -0.00006463            0.00        0.00       -9.51

     BFGS Geometry Optimization
     Energy error            =      0.0E+00
     Gradient error          =      4.4E-02
     Cell gradient error     =      9.9E-05

     number of scf cycles    =   1
     number of bfgs steps    =   0

     enthalpy new            =    -326.3341675249 Ry

     new trust radius        =       0.0444205997 bohr
     new conv_thr            =       0.0000000010 Ry

     new unit-cell volume =   2547.45144 a.u.^3 (   377.49336 Ang^3 )
     density =      1.04438 g/cm^3

CELL_PARAMETERS (alat=  8.84391826)
   0.997535797   0.000000000   0.000000000
  -0.498767898   0.863891341   0.000000000
   0.000000000   0.000000000   4.273504274

ATOMIC_POSITIONS (crystal)
Sn            0.3333333330        0.6666666660        0.5000000000    0   0   0
Sn            0.6666666660        0.3333333330        0.4011753185

     Writing output data file ../tmp/stanene.save/
     NEW-OLD atomic charge density approx. for the potential

     negative rho (up, down):  2.991E-03 0.000E+00
     extrapolated charge   27.87139, renormalised to   28.00000

[...]

          k =-0.0000 0.0482 0.0000 ( 20007 PWs)   bands (ev):

[...]

     Energy error            =      3.2E-03
     Gradient error          =      4.5E-02
     Cell gradient error     =      9.7E-05

[...]

     enthalpy old            =    -326.3341675249 Ry
     enthalpy new            =    -326.3373776172 Ry

     CASE: enthalpy_new < enthalpy_old

     WARNING: bfgs curvature condition failed, Theta= 0.805
     new trust radius        =       0.0488626597 bohr
     new conv_thr            =       0.0000000010 Ry

[...]

     WARNING: bfgs curvature condition failed, Theta= 0.875
     new trust radius        =       0.0342146876 bohr
     new conv_thr            =       0.0000000004 Ry

[...]

     Total force =     0.006965     Total SCF correction =     0.000074

[...]

     Total force =     0.000254     Total SCF correction =     0.000075
     SCF correction compared to forces is large: reduce conv_thr to get better values

[...]

     number of scf cycles    =  21
     number of bfgs steps    =  20

     enthalpy old            =    -326.4181586569 Ry
     enthalpy new            =    -326.4187640804 Ry

     CASE: enthalpy_new < enthalpy_old

     new trust radius        =       0.0039376458 bohr
     new conv_thr            =            2.5E-11 Ry

     new unit-cell volume =   2563.91358 a.u.^3 (   379.93279 Ang^3 )
     density =      1.03767 g/cm^3

[...]

ATOMIC_POSITIONS (crystal)
Sn            0.3333333330        0.6666666660        0.5000000000    0   0   0
Sn            0.6666666660        0.3333333330        0.4579351681

     Writing output data file ../tmp/stanene.save/
     NEW-OLD atomic charge density approx. for the potential

     negative rho (up, down):  3.643E-03 0.000E+00
     extrapolated charge   28.02021, renormalised to   28.00000

[...]

     Energy error            =      8.4E-07
     Gradient error          =      5.6E-05
     Cell gradient error     =      9.0E-09

     bfgs converged in  22 scf cycles and  21 bfgs steps
     (criteria: energy <  1.0E-05 Ry, force <  1.0E-04Ry/Bohr, cell <  5.0E-02kbar)

     End of BFGS Geometry Optimization

     Final enthalpy =    -326.4187649166 Ry

     File ../tmp/stanene.bfgs deleted, as requested
Begin final coordinates
     new unit-cell volume =   2563.91358 a.u.^3 (   379.93279 Ang^3 )
     density =      1.03767 g/cm^3

CELL_PARAMETERS (alat=  8.84391826)
   1.000753744   0.000000000   0.000000000
  -0.500376872   0.866678165   0.000000000
   0.000000000   0.000000000   4.273504274

ATOMIC_POSITIONS (crystal)
Sn            0.3333333330        0.6666666660        0.5000000000    0   0   0
Sn            0.6666666660        0.3333333330        0.4579351681
End final coordinates

     Writing output data file ../tmp/stanene.save/

     Final scf calculation at the relaxed structure.
     The G-vectors are recalculated for the final unit cell
     Results may differ from those at the preceding step.

     bravais-lattice index     =            4
     lattice parameter (alat)  =       8.8439  a.u.
     unit-cell volume          =    2563.9136 (a.u.)^3
     number of atoms/cell      =            2
     number of atomic types    =            1
     number of electrons       =        28.00
     number of Kohn-Sham states=           18
     kinetic-energy cutoff     =      60.0000  Ry
     charge density cutoff     =     240.0000  Ry
     scf convergence threshold =      2.5E-11
     mixing beta               =       0.7000
     number of iterations used =            8  plain     mixing
     press convergence thresh. =      5.0E-02
     Exchange-correlation= SLA  PW   PBE  PBE
                           (   1   4   3   4   0   0   0)

     celldm(1)=   8.843918  celldm(2)=   0.000000  celldm(3)=   4.273504
     celldm(4)=   0.000000  celldm(5)=   0.000000  celldm(6)=   0.000000

     crystal axes: (cart. coord. in units of alat)
               a(1) = (   1.000754   0.000000   0.000000 )
               a(2) = (  -0.500377   0.866678   0.000000 )
               a(3) = (   0.000000   0.000000   4.273504 )

     reciprocal axes: (cart. coord. in units 2 pi/alat)
               b(1) = (  0.999247  0.576915 -0.000000 )
               b(2) = ( -0.000000  1.153831  0.000000 )
               b(3) = (  0.000000 -0.000000  0.234000 )

     PseudoPot. # 1 for Sn read from file:
     ../pseudo/Sn_pbe_v1.uspp.F.UPF
     MD5 check sum: 4cf58ce39ec5d5d420df3dd08604eb00
     Pseudo is Ultrasoft + core correction, Zval = 14.0
     Generated by new atomic code, or converted to UPF format
     Using radial grid of  891 points,  6 beta functions with:
                l(1) =   0
                l(2) =   0
                l(3) =   1
                l(4) =   1
                l(5) =   2
                l(6) =   2
     Q(r) pseudized with  6 coefficients,  rinner =    1.200   1.200   1.200
                                                       1.200   1.200

     atomic species   valence    mass     pseudopotential
        Sn            14.00   118.71000     Sn( 1.00)

      6 Sym. Ops. (no inversion) found

   Cartesian axes

     site n.     atom                  positions (alat units)
         1           Sn  tau(   1) = (  -0.0000000   0.5777854   2.1367521  )
         2           Sn  tau(   2) = (   0.5003769   0.2888927   1.9569879  )

     number of k points=    61  Marzari-Vanderbilt smearing, width (Ry)=  0.0200
                       cart. coord. in units 2pi/alat
        k(    1) = (   0.0000000   0.0000000   0.0000000), wk =   0.0034722
        k(    2) = (  -0.0000000   0.0480763   0.0000000), wk =   0.0208333
        k(    3) = (  -0.0000000   0.0961526   0.0000000), wk =   0.0208333
        k(    4) = (  -0.0000000   0.1442289   0.0000000), wk =   0.0208333
        k(    5) = (  -0.0000000   0.1923051   0.0000000), wk =   0.0208333
        k(    6) = (  -0.0000000   0.2403814   0.0000000), wk =   0.0208333
        k(    7) = (  -0.0000000   0.2884577   0.0000000), wk =   0.0208333
        k(    8) = (  -0.0000000   0.3365340   0.0000000), wk =   0.0208333
        k(    9) = (  -0.0000000   0.3846103   0.0000000), wk =   0.0208333
        k(   10) = (  -0.0000000   0.4326866   0.0000000), wk =   0.0208333
        k(   11) = (  -0.0000000   0.4807629   0.0000000), wk =   0.0208333
        k(   12) = (  -0.0000000   0.5288391   0.0000000), wk =   0.0208333
        k(   13) = (   0.0000000  -0.5769154   0.0000000), wk =   0.0104167
        k(   14) = (   0.0416353   0.0721144   0.0000000), wk =   0.0208333
        k(   15) = (   0.0416353   0.1201907   0.0000000), wk =   0.0416667
        k(   16) = (   0.0416353   0.1682670   0.0000000), wk =   0.0416667
        k(   17) = (   0.0416353   0.2163433   0.0000000), wk =   0.0416667
        k(   18) = (   0.0416353   0.2644196   0.0000000), wk =   0.0416667
        k(   19) = (   0.0416353   0.3124959   0.0000000), wk =   0.0416667
        k(   20) = (   0.0416353   0.3605721   0.0000000), wk =   0.0416667
        k(   21) = (   0.0416353   0.4086484   0.0000000), wk =   0.0416667
        k(   22) = (   0.0416353   0.4567247   0.0000000), wk =   0.0416667
        k(   23) = (   0.0416353   0.5048010   0.0000000), wk =   0.0416667
        k(   24) = (   0.0416353   0.5528773   0.0000000), wk =   0.0416667
        k(   25) = (   0.0832706   0.1442289   0.0000000), wk =   0.0208333
        k(   26) = (   0.0832706   0.1923051   0.0000000), wk =   0.0416667
        k(   27) = (   0.0832706   0.2403814   0.0000000), wk =   0.0416667
        k(   28) = (   0.0832706   0.2884577   0.0000000), wk =   0.0416667
        k(   29) = (   0.0832706   0.3365340   0.0000000), wk =   0.0416667
        k(   30) = (   0.0832706   0.3846103   0.0000000), wk =   0.0416667
        k(   31) = (   0.0832706   0.4326866   0.0000000), wk =   0.0416667
        k(   32) = (   0.0832706   0.4807629   0.0000000), wk =   0.0416667
        k(   33) = (   0.0832706   0.5288391   0.0000000), wk =   0.0416667
        k(   34) = (   0.0832706   0.5769154   0.0000000), wk =   0.0208333
        k(   35) = (   0.1249059   0.2163433   0.0000000), wk =   0.0208333
        k(   36) = (   0.1249059   0.2644196   0.0000000), wk =   0.0416667
        k(   37) = (   0.1249059   0.3124959   0.0000000), wk =   0.0416667
        k(   38) = (   0.1249059   0.3605721   0.0000000), wk =   0.0416667
        k(   39) = (   0.1249059   0.4086484   0.0000000), wk =   0.0416667
        k(   40) = (   0.1249059   0.4567247   0.0000000), wk =   0.0416667
        k(   41) = (   0.1249059   0.5048010   0.0000000), wk =   0.0416667
        k(   42) = (   0.1249059   0.5528773   0.0000000), wk =   0.0416667
        k(   43) = (   0.1665411   0.2884577   0.0000000), wk =   0.0208333
        k(   44) = (   0.1665411   0.3365340   0.0000000), wk =   0.0416667
        k(   45) = (   0.1665411   0.3846103   0.0000000), wk =   0.0416667
        k(   46) = (   0.1665411   0.4326866   0.0000000), wk =   0.0416667
        k(   47) = (   0.1665411   0.4807629   0.0000000), wk =   0.0416667
        k(   48) = (   0.1665411   0.5288391   0.0000000), wk =   0.0416667
        k(   49) = (   0.1665411   0.5769154   0.0000000), wk =   0.0208333
        k(   50) = (   0.2081764   0.3605721   0.0000000), wk =   0.0208333
        k(   51) = (   0.2081764   0.4086484   0.0000000), wk =   0.0416667
        k(   52) = (   0.2081764   0.4567247   0.0000000), wk =   0.0416667
        k(   53) = (   0.2081764   0.5048010   0.0000000), wk =   0.0416667
        k(   54) = (   0.2081764   0.5528773   0.0000000), wk =   0.0416667
        k(   55) = (   0.2498117   0.4326866   0.0000000), wk =   0.0208333
        k(   56) = (   0.2498117   0.4807629   0.0000000), wk =   0.0416667
        k(   57) = (   0.2498117   0.5288391   0.0000000), wk =   0.0416667
        k(   58) = (   0.2498117   0.5769154   0.0000000), wk =   0.0208333
        k(   59) = (   0.2914470   0.5048010   0.0000000), wk =   0.0208333
        k(   60) = (   0.2914470   0.5528773   0.0000000), wk =   0.0416667
        k(   61) = (   0.3330823   0.5769154   0.0000000), wk =   0.0069444

     Initial potential from superposition of free atoms

     starting charge   25.99991, renormalised to   28.00000

     negative rho (up, down):  4.825E-03 0.000E+00
     Starting wfcs are   18 randomized atomic wfcs

     Self-consistent Calculation

[...]

     iteration #  5     ecut=    60.00 Ry     beta= 0.70
     Davidson diagonalization with overlap
     c_bands:  1 eigenvalues not converged
     ethr =  1.57E-06,  avg # of iterations =  6.4

[...]

     total energy              =    -326.41875734 Ry
     estimated scf accuracy    <          4.6E-11 Ry

     iteration # 11     ecut=    60.00 Ry     beta= 0.70
     Davidson diagonalization with overlap
     ethr =  1.64E-13,  avg # of iterations =  3.3

[...]

     End of self-consistent calculation

[...]

          k =-0.0000 0.5288 0.0000 ( 20142 PWs)   bands (ev):

[...]

          k = 0.3331 0.5769 0.0000 ( 20133 PWs)   bands (ev):

   -23.5719 -23.5142 -23.5142 -23.3855 -23.3210 -23.3180 -23.3180 -23.2354
   -23.2354 -23.0606  -9.0367  -9.0367  -4.8664  -2.1283  -2.1283   1.6332
     2.6855   2.6855

     the Fermi energy is    -2.2660 ev

!    total energy              =    -326.41875734 Ry
     estimated scf accuracy    <          6.3E-12 Ry
     smearing contrib. (-TS)   =       0.00133166 Ry
     internal energy E=F+TS    =    -326.42008900 Ry

     The total energy is F=E-TS. E is the sum of the following terms:
     one-electron contribution =    -856.52354651 Ry
     hartree contribution      =     435.95249447 Ry
     xc contribution           =     -95.00747343 Ry
     ewald contribution        =     189.15843647 Ry

     convergence has been achieved in  11 iterations

     negative rho (up, down):  3.603E-03 0.000E+00

     Forces acting on atoms (cartesian axes, Ry/au):

     atom    1 type  1   force =     0.00000000    0.00000000   -0.00005286
     atom    2 type  1   force =     0.00000000    0.00000000    0.00005286

     Total force =     0.000053     Total SCF correction =     0.000008
     SCF correction compared to forces is large: reduce conv_thr to get better values

     Computing stress (Cartesian axis) and pressure

     negative rho (up, down):  3.603E-03 0.000E+00
          total   stress  (Ry/bohr**3)                   (kbar)     P=        0.05
  -0.00000004  -0.00000000   0.00000000           -0.01       -0.00        0.00
  -0.00000000  -0.00000004   0.00000000           -0.00       -0.01        0.00
   0.00000000   0.00000000   0.00000106            0.00        0.00        0.16

     Writing output data file ../tmp/stanene.save/

     General routines

     Parallel routines

   This run was terminated on:  12: 9:27  22Jan2024

   JOB DONE.