     Program PWSCF v.7.2 starts on 26Jun2024 at 17:39: 0

     Waiting for input...
     Reading input from standard input

     Current dimensions of program PWSCF are:
     Max number of different atomic species (ntypx) = 10
     Max number of k-points (npk) =  40000
     Max angular momentum in pseudopotentials (lmaxx) =  4

     R & G space division:  proc/nbgrp/npool/nimage =       6
     Subspace diagonalization in iterative solution of the eigenvalue problem:
     a serial algorithm will be used

     Using Slab Decomposition

     bravais-lattice index     =            4
     lattice parameter (alat)  =       8.8506  a.u.
     unit-cell volume          =    2563.9136 (a.u.)^3
     number of atoms/cell      =            2
     number of atomic types    =            1
     number of electrons       =        28.00
     number of Kohn-Sham states=           18
     kinetic-energy cutoff     =      60.0000  Ry
     charge density cutoff     =     480.0000  Ry
     scf convergence threshold =      1.0E-07
     mixing beta               =       0.7000
     number of iterations used =            8  plain     mixing
     Exchange-correlation= SLA  PW   PBE  PBE
                           (   1   4   3   4   0   0   0)

     celldm(1)=   8.850584  celldm(2)=   0.000000  celldm(3)=   4.270286
     celldm(4)=   0.000000  celldm(5)=   0.000000  celldm(6)=   0.000000

     crystal axes: (cart. coord. in units of alat)
               a(1) = (   1.000000   0.000000   0.000000 )
               a(2) = (  -0.500000   0.866025   0.000000 )
               a(3) = (   0.000000   0.000000   4.270286 )

     reciprocal axes: (cart. coord. in units 2 pi/alat)
               b(1) = (  1.000000  0.577350 -0.000000 )
               b(2) = (  0.000000  1.154701  0.000000 )
               b(3) = (  0.000000 -0.000000  0.234176 )

     PseudoPot. # 1 for Sn read from file:
     ../pseudo/Sn_pbe_v1.uspp.F.UPF
     MD5 check sum: 4cf58ce39ec5d5d420df3dd08604eb00
     Pseudo is Ultrasoft + core correction, Zval = 14.0
     Generated by new atomic code, or converted to UPF format
     Using radial grid of  891 points,  6 beta functions with:
                l(1) =   0
                l(2) =   0
                l(3) =   1
                l(4) =   1
                l(5) =   2
                l(6) =   2
     Q(r) pseudized with  6 coefficients,  rinner =    1.200   1.200   1.200
                                                       1.200   1.200

     atomic species   valence    mass     pseudopotential
        Sn            14.00   118.71000     Sn( 1.00)

     24 Sym. Ops., with inversion, found

                                    s                        frac. trans.

      isym =  1     identity

 cryst.   s( 1) = (     1          0          0      )
                  (     0          1          0      )
                  (     0          0          1      )

 cart.    s( 1) = (  1.0000000  0.0000000  0.0000000 )
                  (  0.0000000  1.0000000  0.0000000 )
                  (  0.0000000  0.0000000  1.0000000 )

      isym =  2     180 deg rotation - cart. axis [0,0,1]

[...]

      isym =  4     180 deg rotation - cart. axis [1,0,0]

[...]

      isym =  5      60 deg rotation - cryst. axis [0,0,1]

[...]

 cryst.   s( 9) = (     0         -1          0      )
                  (    -1          0          0      )
                  (     0          0         -1      )

 cart.    s( 9) = (  0.5000000 -0.8660254  0.0000000 )
                  ( -0.8660254 -0.5000000  0.0000000 )
                  (  0.0000000  0.0000000 -1.0000000 )

[...]

 cryst.   s(10) = (     1          1          0      )
                  (     0         -1          0      )
                  (     0          0         -1      )

 cart.    s(10) = (  0.5000000  0.8660254  0.0000000 )
                  (  0.8660254 -0.5000000  0.0000000 )
                  (  0.0000000  0.0000000 -1.0000000 )

[...]

      isym = 12     180 deg rotation - cryst. axis [1,1,0]

[...]

      isym = 13     inversion

[...]

      isym = 14     inv. 180 deg rotation - cart. axis [0,0,1]

[...]

      isym = 16     inv. 180 deg rotation - cart. axis [1,0,0]

[...]

      isym = 17     inv.  60 deg rotation - cryst. axis [0,0,1]

[...]

      isym = 24     inv. 180 deg rotation - cryst. axis [1,1,0]

 cryst.   s(24) = (     0         -1          0      )
                  (    -1          0          0      )
                  (     0          0          1      )

 cart.    s(24) = (  0.5000000 -0.8660254  0.0000000 )
                  ( -0.8660254 -0.5000000  0.0000000 )
                  (  0.0000000  0.0000000  1.0000000 )

     point group D_6h(6/mmm)
     there are 12 classes
     the character table:

       E     2C6   2C3   C2    3C2'  3C2'' i     2S3   2S6   s_h   3s_d  3s_v
A_1g   1.00  1.00  1.00  1.00  1.00  1.00  1.00  1.00  1.00  1.00  1.00  1.00
A_2g   1.00  1.00  1.00  1.00 -1.00 -1.00  1.00  1.00  1.00  1.00 -1.00 -1.00
B_1g   1.00 -1.00  1.00 -1.00  1.00 -1.00  1.00 -1.00  1.00 -1.00  1.00 -1.00
B_2g   1.00 -1.00  1.00 -1.00 -1.00  1.00  1.00 -1.00  1.00 -1.00 -1.00  1.00
E_1g   2.00  1.00 -1.00 -2.00  0.00  0.00  2.00  1.00 -1.00 -2.00  0.00  0.00
E_2g   2.00 -1.00 -1.00  2.00  0.00  0.00  2.00 -1.00 -1.00  2.00  0.00  0.00
A_1u   1.00  1.00  1.00  1.00  1.00  1.00 -1.00 -1.00 -1.00 -1.00 -1.00 -1.00
A_2u   1.00  1.00  1.00  1.00 -1.00 -1.00 -1.00 -1.00 -1.00 -1.00  1.00  1.00
B_1u   1.00 -1.00  1.00 -1.00  1.00 -1.00 -1.00  1.00 -1.00  1.00 -1.00  1.00
B_2u   1.00 -1.00  1.00 -1.00 -1.00  1.00 -1.00  1.00 -1.00  1.00  1.00 -1.00
E_1u   2.00  1.00 -1.00 -2.00  0.00  0.00 -2.00 -1.00  1.00  2.00  0.00  0.00
E_2u   2.00 -1.00 -1.00  2.00  0.00  0.00 -2.00  1.00  1.00 -2.00  0.00  0.00

     the symmetry operations in each class and the name of the first element:

     E        1
          identity
     2C6      5    6
           60 deg rotation - cryst. axis [0,0,1]
     2C3      7    8
          120 deg rotation - cryst. axis [0,0,1]
     C2       2
          180 deg rotation - cart. axis [0,0,1]
     3C2'     4   12   11
          180 deg rotation - cart. axis [1,0,0]
     3C2''    3    9   10
          180 deg rotation - cart. axis [0,1,0]
     i       13
          inversion
     2S3     17   18
          inv.  60 deg rotation - cryst. axis [0,0,1]
     2S6     19   20
          inv. 120 deg rotation - cryst. axis [0,0,1]
     s_h     14
          inv. 180 deg rotation - cart. axis [0,0,1]
     3s_d    16   24   23
          inv. 180 deg rotation - cart. axis [1,0,0]
     3s_v    15   21   22
          inv. 180 deg rotation - cart. axis [0,1,0]

   Cartesian axes

     site n.     atom                  positions (alat units)
         1           Sn  tau(   1) = (   0.0000000   0.5773503   2.1351428  )
         2           Sn  tau(   2) = (   0.5000000   0.2886751   2.1351428  )

   Crystallographic axes

     site n.     atom                  positions (cryst. coord.)
         1           Sn  tau(   1) = (  0.3333333  0.6666667  0.5000000  )
         2           Sn  tau(   2) = (  0.6666667  0.3333333  0.5000000  )

     number of k points=   217  Methfessel-Paxton smearing, width (Ry)=  0.0200
                       cart. coord. in units 2pi/alat
        k(    1) = (   0.0000000   0.0000000   0.0000000), wk =   0.0008681
        k(    2) = (   0.0000000   0.0240563   0.0000000), wk =   0.0052083
        k(    3) = (   0.0000000   0.0481125   0.0000000), wk =   0.0052083
        k(    4) = (   0.0000000   0.0721688   0.0000000), wk =   0.0052083
        k(    5) = (   0.0000000   0.0962250   0.0000000), wk =   0.0052083
        k(    6) = (   0.0000000   0.1202813   0.0000000), wk =   0.0052083
        k(    7) = (   0.0000000   0.1443376   0.0000000), wk =   0.0052083
        k(    8) = (   0.0000000   0.1683938   0.0000000), wk =   0.0052083
        k(    9) = (   0.0000000   0.1924501   0.0000000), wk =   0.0052083
        k(   10) = (   0.0000000   0.2165064   0.0000000), wk =   0.0052083
        k(   11) = (   0.0000000   0.2405626   0.0000000), wk =   0.0052083
        k(   12) = (   0.0000000   0.2646189   0.0000000), wk =   0.0052083
        k(   13) = (   0.0000000   0.2886751   0.0000000), wk =   0.0052083
        k(   14) = (   0.0000000   0.3127314   0.0000000), wk =   0.0052083
        k(   15) = (   0.0000000   0.3367877   0.0000000), wk =   0.0052083
        k(   16) = (   0.0000000   0.3608439   0.0000000), wk =   0.0052083
        k(   17) = (   0.0000000   0.3849002   0.0000000), wk =   0.0052083
        k(   18) = (   0.0000000   0.4089564   0.0000000), wk =   0.0052083
        k(   19) = (   0.0000000   0.4330127   0.0000000), wk =   0.0052083
        k(   20) = (   0.0000000   0.4570690   0.0000000), wk =   0.0052083
        k(   21) = (   0.0000000   0.4811252   0.0000000), wk =   0.0052083
        k(   22) = (   0.0000000   0.5051815   0.0000000), wk =   0.0052083
        k(   23) = (   0.0000000   0.5292377   0.0000000), wk =   0.0052083
        k(   24) = (   0.0000000   0.5532940   0.0000000), wk =   0.0052083
        k(   25) = (   0.0000000  -0.5773503   0.0000000), wk =   0.0026042
        k(   26) = (   0.0208333   0.0360844   0.0000000), wk =   0.0052083
        k(   27) = (   0.0208333   0.0601407   0.0000000), wk =   0.0104167
        k(   28) = (   0.0208333   0.0841969   0.0000000), wk =   0.0104167
        k(   29) = (   0.0208333   0.1082532   0.0000000), wk =   0.0104167
        k(   30) = (   0.0208333   0.1323094   0.0000000), wk =   0.0104167
        k(   31) = (   0.0208333   0.1563657   0.0000000), wk =   0.0104167
        k(   32) = (   0.0208333   0.1804220   0.0000000), wk =   0.0104167
        k(   33) = (   0.0208333   0.2044782   0.0000000), wk =   0.0104167
        k(   34) = (   0.0208333   0.2285345   0.0000000), wk =   0.0104167
        k(   35) = (   0.0208333   0.2525907   0.0000000), wk =   0.0104167
        k(   36) = (   0.0208333   0.2766470   0.0000000), wk =   0.0104167
        k(   37) = (   0.0208333   0.3007033   0.0000000), wk =   0.0104167
        k(   38) = (   0.0208333   0.3247595   0.0000000), wk =   0.0104167
        k(   39) = (   0.0208333   0.3488158   0.0000000), wk =   0.0104167
        k(   40) = (   0.0208333   0.3728720   0.0000000), wk =   0.0104167
        k(   41) = (   0.0208333   0.3969283   0.0000000), wk =   0.0104167
        k(   42) = (   0.0208333   0.4209846   0.0000000), wk =   0.0104167
        k(   43) = (   0.0208333   0.4450408   0.0000000), wk =   0.0104167
        k(   44) = (   0.0208333   0.4690971   0.0000000), wk =   0.0104167
        k(   45) = (   0.0208333   0.4931534   0.0000000), wk =   0.0104167
        k(   46) = (   0.0208333   0.5172096   0.0000000), wk =   0.0104167
        k(   47) = (   0.0208333   0.5412659   0.0000000), wk =   0.0104167
        k(   48) = (   0.0208333   0.5653221   0.0000000), wk =   0.0104167
        k(   49) = (   0.0416667   0.0721688   0.0000000), wk =   0.0052083
        k(   50) = (   0.0416667   0.0962250   0.0000000), wk =   0.0104167
        k(   51) = (   0.0416667   0.1202813   0.0000000), wk =   0.0104167
        k(   52) = (   0.0416667   0.1443376   0.0000000), wk =   0.0104167
        k(   53) = (   0.0416667   0.1683938   0.0000000), wk =   0.0104167
        k(   54) = (   0.0416667   0.1924501   0.0000000), wk =   0.0104167
        k(   55) = (   0.0416667   0.2165064   0.0000000), wk =   0.0104167
        k(   56) = (   0.0416667   0.2405626   0.0000000), wk =   0.0104167
        k(   57) = (   0.0416667   0.2646189   0.0000000), wk =   0.0104167
        k(   58) = (   0.0416667   0.2886751   0.0000000), wk =   0.0104167
        k(   59) = (   0.0416667   0.3127314   0.0000000), wk =   0.0104167
        k(   60) = (   0.0416667   0.3367877   0.0000000), wk =   0.0104167
[...]
        k(  203) = (   0.2500000   0.5292377   0.0000000), wk =   0.0104167
        k(  204) = (   0.2500000   0.5532940   0.0000000), wk =   0.0104167
        k(  205) = (   0.2500000   0.5773503   0.0000000), wk =   0.0052083
        k(  206) = (   0.2708333   0.4690971   0.0000000), wk =   0.0052083
        k(  207) = (   0.2708333   0.4931534   0.0000000), wk =   0.0104167
        k(  208) = (   0.2708333   0.5172096   0.0000000), wk =   0.0104167
        k(  209) = (   0.2708333   0.5412659   0.0000000), wk =   0.0104167
        k(  210) = (   0.2708333   0.5653221   0.0000000), wk =   0.0104167
        k(  211) = (   0.2916667   0.5051815   0.0000000), wk =   0.0052083
        k(  212) = (   0.2916667   0.5292377   0.0000000), wk =   0.0104167
        k(  213) = (   0.2916667   0.5532940   0.0000000), wk =   0.0104167
        k(  214) = (   0.2916667   0.5773503   0.0000000), wk =   0.0052083
        k(  215) = (   0.3125000   0.5412659   0.0000000), wk =   0.0052083
        k(  216) = (   0.3125000   0.5653221   0.0000000), wk =   0.0104167
        k(  217) = (   0.3333333   0.5773503   0.0000000), wk =   0.0017361

                       cryst. coord.
        k(    1) = (   0.0000000   0.0000000   0.0000000), wk =   0.0008681
        k(    2) = (   0.0000000   0.0208333   0.0000000), wk =   0.0052083
        k(    3) = (   0.0000000   0.0416667   0.0000000), wk =   0.0052083
        k(    4) = (   0.0000000   0.0625000   0.0000000), wk =   0.0052083
        k(    5) = (   0.0000000   0.0833333   0.0000000), wk =   0.0052083
        k(    6) = (   0.0000000   0.1041667   0.0000000), wk =   0.0052083
        k(    7) = (   0.0000000   0.1250000   0.0000000), wk =   0.0052083
        k(    8) = (   0.0000000   0.1458333   0.0000000), wk =   0.0052083
        k(    9) = (   0.0000000   0.1666667   0.0000000), wk =   0.0052083
        k(   10) = (   0.0000000   0.1875000   0.0000000), wk =   0.0052083
        k(   11) = (   0.0000000   0.2083333   0.0000000), wk =   0.0052083
        k(   12) = (   0.0000000   0.2291667   0.0000000), wk =   0.0052083
        k(   13) = (   0.0000000   0.2500000   0.0000000), wk =   0.0052083
        k(   14) = (   0.0000000   0.2708333   0.0000000), wk =   0.0052083
        k(   15) = (   0.0000000   0.2916667   0.0000000), wk =   0.0052083
        k(   16) = (   0.0000000   0.3125000   0.0000000), wk =   0.0052083
        k(   17) = (   0.0000000   0.3333333   0.0000000), wk =   0.0052083
        k(   18) = (   0.0000000   0.3541667   0.0000000), wk =   0.0052083
        k(   19) = (   0.0000000   0.3750000   0.0000000), wk =   0.0052083
        k(   20) = (   0.0000000   0.3958333   0.0000000), wk =   0.0052083
        k(   21) = (   0.0000000   0.4166667   0.0000000), wk =   0.0052083
        k(   22) = (   0.0000000   0.4375000   0.0000000), wk =   0.0052083
        k(   23) = (   0.0000000   0.4583333   0.0000000), wk =   0.0052083
        k(   24) = (   0.0000000   0.4791667   0.0000000), wk =   0.0052083
        k(   25) = (   0.0000000  -0.5000000   0.0000000), wk =   0.0026042
        k(   26) = (   0.0208333   0.0208333   0.0000000), wk =   0.0052083
        k(   27) = (   0.0208333   0.0416667   0.0000000), wk =   0.0104167
        k(   28) = (   0.0208333   0.0625000   0.0000000), wk =   0.0104167
        k(   29) = (   0.0208333   0.0833333   0.0000000), wk =   0.0104167
        k(   30) = (   0.0208333   0.1041667   0.0000000), wk =   0.0104167
        k(   31) = (   0.0208333   0.1250000   0.0000000), wk =   0.0104167
        k(   32) = (   0.0208333   0.1458333   0.0000000), wk =   0.0104167
        k(   33) = (   0.0208333   0.1666667   0.0000000), wk =   0.0104167
        k(   34) = (   0.0208333   0.1875000   0.0000000), wk =   0.0104167
        k(   35) = (   0.0208333   0.2083333   0.0000000), wk =   0.0104167
        k(   36) = (   0.0208333   0.2291667   0.0000000), wk =   0.0104167
        k(   37) = (   0.0208333   0.2500000   0.0000000), wk =   0.0104167
        k(   38) = (   0.0208333   0.2708333   0.0000000), wk =   0.0104167
        k(   39) = (   0.0208333   0.2916667   0.0000000), wk =   0.0104167
        k(   40) = (   0.0208333   0.3125000   0.0000000), wk =   0.0104167
        k(   41) = (   0.0208333   0.3333333   0.0000000), wk =   0.0104167
        k(   42) = (   0.0208333   0.3541667   0.0000000), wk =   0.0104167
        k(   43) = (   0.0208333   0.3750000   0.0000000), wk =   0.0104167
        k(   44) = (   0.0208333   0.3958333   0.0000000), wk =   0.0104167
        k(   45) = (   0.0208333   0.4166667   0.0000000), wk =   0.0104167
        k(   46) = (   0.0208333   0.4375000   0.0000000), wk =   0.0104167
        k(   47) = (   0.0208333   0.4583333   0.0000000), wk =   0.0104167
        k(   48) = (   0.0208333   0.4791667   0.0000000), wk =   0.0104167
        k(   49) = (   0.0416667   0.0416667   0.0000000), wk =   0.0052083
        k(   50) = (   0.0416667   0.0625000   0.0000000), wk =   0.0104167
        k(   51) = (   0.0416667   0.0833333   0.0000000), wk =   0.0104167
        k(   52) = (   0.0416667   0.1041667   0.0000000), wk =   0.0104167
        k(   53) = (   0.0416667   0.1250000   0.0000000), wk =   0.0104167
        k(   54) = (   0.0416667   0.1458333   0.0000000), wk =   0.0104167
        k(   55) = (   0.0416667   0.1666667   0.0000000), wk =   0.0104167
        k(   56) = (   0.0416667   0.1875000   0.0000000), wk =   0.0104167
        k(   57) = (   0.0416667   0.2083333   0.0000000), wk =   0.0104167
        k(   58) = (   0.0416667   0.2291667   0.0000000), wk =   0.0104167
        k(   59) = (   0.0416667   0.2500000   0.0000000), wk =   0.0104167
        k(   60) = (   0.0416667   0.2708333   0.0000000), wk =   0.0104167
[...]
        k(  203) = (   0.2500000   0.3333333   0.0000000), wk =   0.0104167
        k(  204) = (   0.2500000   0.3541667   0.0000000), wk =   0.0104167
        k(  205) = (   0.2500000   0.3750000   0.0000000), wk =   0.0052083
        k(  206) = (   0.2708333   0.2708333   0.0000000), wk =   0.0052083
        k(  207) = (   0.2708333   0.2916667   0.0000000), wk =   0.0104167
        k(  208) = (   0.2708333   0.3125000   0.0000000), wk =   0.0104167
        k(  209) = (   0.2708333   0.3333333   0.0000000), wk =   0.0104167
        k(  210) = (   0.2708333   0.3541667   0.0000000), wk =   0.0104167
        k(  211) = (   0.2916667   0.2916667   0.0000000), wk =   0.0052083
        k(  212) = (   0.2916667   0.3125000   0.0000000), wk =   0.0104167
        k(  213) = (   0.2916667   0.3333333   0.0000000), wk =   0.0104167
        k(  214) = (   0.2916667   0.3541667   0.0000000), wk =   0.0052083
        k(  215) = (   0.3125000   0.3125000   0.0000000), wk =   0.0052083
        k(  216) = (   0.3125000   0.3333333   0.0000000), wk =   0.0104167
        k(  217) = (   0.3333333   0.3333333   0.0000000), wk =   0.0017361

     Initial potential from superposition of free atoms

     starting charge      25.9999, renormalised to      28.0000

     negative rho (up, down):  6.188E-04 0.000E+00
     Starting wfcs are   18 randomized atomic wfcs

     Self-consistent Calculation

     iteration #  1     ecut=    60.00 Ry     beta= 0.70
     Davidson diagonalization with overlap

     ethr =  1.00E-02,  avg # of iterations =  7.5

     negative rho (up, down):  8.652E-07 0.000E+00

     total energy              =    -325.43743974 Ry
     estimated scf accuracy    <       2.48546906 Ry

[...]

     total energy              =    -326.39268075 Ry
     estimated scf accuracy    <       0.00000101 Ry

     iteration #  7     ecut=    60.00 Ry     beta= 0.70
     Davidson diagonalization with overlap

     ethr =  3.19E-09,  avg # of iterations =  2.0

     negative rho (up, down):  8.722E-05 0.000E+00

     End of self-consistent calculation

          k = 0.0000 0.0000 0.0000 ( 20025 PWs)   bands (ev):

   -24.1141 -24.0975 -24.0975 -23.9968 -23.9968 -23.8356 -23.8356 -23.7662
   -23.7662 -23.7088 -12.2064  -4.2920  -3.6999  -3.3516  -3.3516   0.6656
     0.6656   1.0087

     occupation numbers
     1.0000   1.0000   1.0000   1.0000   1.0000   1.0000   1.0000   1.0000
     1.0000   1.0000   1.0000   1.0000   1.0000   1.0000   1.0000  -0.0000
    -0.0000  -0.0000

[...]

          k = 0.3333 0.5774 0.0000 ( 20133 PWs)   bands (ev):

   -24.3421 -24.1426 -24.1426 -24.0284 -23.8844 -23.8844 -23.7357 -23.7275
   -23.7275 -23.5579  -9.8062  -9.8062  -5.8322  -1.9195  -1.9195   1.8734
     1.8734   2.1432

     occupation numbers
     1.0000   1.0000   1.0000   1.0000   1.0000   1.0000   1.0000   1.0000
     1.0000   1.0000   1.0000   1.0000   1.0000  -0.0344  -0.0344  -0.0000
    -0.0000  -0.0000

     the Fermi energy is    -2.2762 ev

!    total energy              =    -326.39268094 Ry
     estimated scf accuracy    <          5.1E-09 Ry
     smearing contrib. (-TS)   =       0.00023993 Ry
     internal energy E=F+TS    =    -326.39292087 Ry

     The total energy is F=E-TS. E is the sum of the following terms:
     one-electron contribution =    -881.89199452 Ry
     hartree contribution      =     448.08977387 Ry
     xc contribution           =     -95.07136076 Ry
     ewald contribution        =     202.48066054 Ry

     convergence has been achieved in   7 iterations

     Writing all to output data dir ../tmp/stanene.save/

     General routines

     Parallel routines

   This run was terminated on:  19:49:51  26Jun2024

   JOB DONE.