     Program PWSCF v.7.2 starts on 28Jun2024 at  3:39: 7

     Waiting for input...
     Reading input from standard input

     Current dimensions of program PWSCF are:
     Max number of different atomic species (ntypx) = 10
     Max number of k-points (npk) =  40000
     Max angular momentum in pseudopotentials (lmaxx) =  4
     file Sn.rel-pbe-dn-kjpaw_psl.1.0.0.UPF: wavefunction(s)  5S 5P 5P 4D 4D renormalized

     R & G space division:  proc/nbgrp/npool/nimage =       6
     Subspace diagonalization in iterative solution of the eigenvalue problem:
     a serial algorithm will be used

     Using Slab Decomposition

     bravais-lattice index     =            4
     lattice parameter (alat)  =       8.8506  a.u.
     unit-cell volume          =    2563.9136 (a.u.)^3
     number of atoms/cell      =            2
     number of atomic types    =            1
     number of electrons       =        28.00
     number of Kohn-Sham states=           60
     kinetic-energy cutoff     =      60.0000  Ry
     charge density cutoff     =     480.0000  Ry
     scf convergence threshold =      1.0E-07
     mixing beta               =       0.7000
     number of iterations used =            8  plain     mixing
     Exchange-correlation= SLA  PW   PBX  PBC
                           (   1   4   3   4   0   0   0)
     Non magnetic calculation with spin-orbit

     celldm(1)=   8.850584  celldm(2)=   0.000000  celldm(3)=   4.270286
     celldm(4)=   0.000000  celldm(5)=   0.000000  celldm(6)=   0.000000

     crystal axes: (cart. coord. in units of alat)
               a(1) = (   1.000000   0.000000   0.000000 )
               a(2) = (  -0.500000   0.866025   0.000000 )
               a(3) = (   0.000000   0.000000   4.270286 )

     reciprocal axes: (cart. coord. in units 2 pi/alat)
               b(1) = (  1.000000  0.577350 -0.000000 )
               b(2) = (  0.000000  1.154701  0.000000 )
               b(3) = (  0.000000 -0.000000  0.234176 )

     PseudoPot. # 1 for Sn read from file:
     ../pseudo/Sn.rel-pbe-dn-kjpaw_psl.1.0.0.UPF
     MD5 check sum: 5b106090e9f9887b12f0b328897b8753
     Pseudo is Projector augmented-wave + core cor, Zval = 14.0
     Generated using &quot;atomic&quot; code by A. Dal Corso  v.6.3
     Shape of augmentation charge: PSQ
     Using radial grid of 1243 points, 10 beta functions with:
                l(1) =   0
                l(2) =   0
                l(3) =   1
                l(4) =   1
                l(5) =   1
                l(6) =   1
                l(7) =   2
                l(8) =   2
                l(9) =   2
               l(10) =   2
     Q(r) pseudized with 0 coefficients

     atomic species   valence    mass     pseudopotential
        Sn            14.00   118.71000     Sn( 1.00)

     24 Sym. Ops., with inversion, found

                                    s                        frac. trans.

      isym =  1     identity

 cryst.   s( 1) = (     1          0          0      )
                  (     0          1          0      )
                  (     0          0          1      )

 cart.    s( 1) = (  1.0000000  0.0000000  0.0000000 )
                  (  0.0000000  1.0000000  0.0000000 )
                  (  0.0000000  0.0000000  1.0000000 )

      isym =  2     180 deg rotation - cart. axis [0,0,1]

[...]

      isym =  4     180 deg rotation - cart. axis [1,0,0]

[...]

      isym =  5      60 deg rotation - cryst. axis [0,0,1]

[...]

 cryst.   s( 9) = (     0         -1          0      )
                  (    -1          0          0      )
                  (     0          0         -1      )

 cart.    s( 9) = (  0.5000000 -0.8660254  0.0000000 )
                  ( -0.8660254 -0.5000000  0.0000000 )
                  (  0.0000000  0.0000000 -1.0000000 )

[...]

 cryst.   s(10) = (     1          1          0      )
                  (     0         -1          0      )
                  (     0          0         -1      )

 cart.    s(10) = (  0.5000000  0.8660254  0.0000000 )
                  (  0.8660254 -0.5000000  0.0000000 )
                  (  0.0000000  0.0000000 -1.0000000 )

[...]

      isym = 12     180 deg rotation - cryst. axis [1,1,0]

[...]

      isym = 13     inversion

[...]

      isym = 14     inv. 180 deg rotation - cart. axis [0,0,1]

[...]

      isym = 16     inv. 180 deg rotation - cart. axis [1,0,0]

[...]

      isym = 17     inv.  60 deg rotation - cryst. axis [0,0,1]

[...]

      isym = 24     inv. 180 deg rotation - cryst. axis [1,1,0]

 cryst.   s(24) = (     0         -1          0      )
                  (    -1          0          0      )
                  (     0          0          1      )

 cart.    s(24) = (  0.5000000 -0.8660254  0.0000000 )
                  ( -0.8660254 -0.5000000  0.0000000 )
                  (  0.0000000  0.0000000  1.0000000 )

     double point group D_6h(6/mmm)
     there are 18 classes and  6 irreducible representations
     the character table:

       E     -E    2C6   -2C6  2C3   -2C3  C2     3C2' 3C2''  i    -i    2S3
                                           -C2   -3C2' -3C2'
G_7+   2.00 -2.00  1.73 -1.73  1.00 -1.00  0.00  0.00  0.00  2.00 -2.00  1.73
G_8+   2.00 -2.00 -1.73  1.73  1.00 -1.00  0.00  0.00  0.00  2.00 -2.00 -1.73
G_9+   2.00 -2.00  0.00  0.00 -2.00  2.00  0.00  0.00  0.00  2.00 -2.00  0.00
G_7-   2.00 -2.00  1.73 -1.73  1.00 -1.00  0.00  0.00  0.00 -2.00  2.00 -1.73
G_8-   2.00 -2.00 -1.73  1.73  1.00 -1.00  0.00  0.00  0.00 -2.00  2.00  1.73
G_9-   2.00 -2.00  0.00  0.00 -2.00  2.00  0.00  0.00  0.00 -2.00  2.00  0.00

       -2S3  2S6   -2S6   s_h   3s_v  3s_d
                         -s_h  -3s_v -3s_d
G_7+  -1.73  1.00 -1.00  0.00  0.00  0.00
G_8+   1.73  1.00 -1.00  0.00  0.00  0.00
G_9+   0.00 -2.00  2.00  0.00  0.00  0.00
G_7-   1.73 -1.00  1.00  0.00  0.00  0.00
G_8-  -1.73 -1.00  1.00  0.00  0.00  0.00
G_9-   0.00  2.00 -2.00  0.00  0.00  0.00

     the symmetry operations in each class and the name of the first element:

     E             1
          identity
     -E           -1
          identity E
     2C6           5    6
           60 deg rotation - cryst. axis [0,0,1]
     -2C6         -5   -6
           60 deg rotation - cryst. axis [0,0,1] E
     2C3           7    8
          120 deg rotation - cryst. axis [0,0,1]
     -2C3         -7   -8
          120 deg rotation - cryst. axis [0,0,1] E
     C2   -C2      2   -2
          180 deg rotation - cart. axis [0,0,1]
      3C2'-3C2'    4   -4   12   11  -11  -12
          180 deg rotation - cart. axis [1,0,0]
     3C2''-3C2'    3   -3   -9   10  -10    9
          180 deg rotation - cart. axis [0,1,0]
      i           13
          inversion
     -i          -13
          inversion E
     2S3          17   18
          inv.  60 deg rotation - cryst. axis [0,0,1]
     -2S3        -17  -18
          inv.  60 deg rotation - cryst. axis [0,0,1] E
     2S6          19   20
          inv. 120 deg rotation - cryst. axis [0,0,1]
     -2S6        -19  -20
          inv. 120 deg rotation - cryst. axis [0,0,1] E
      s_h -s_h    14  -14
          inv. 180 deg rotation - cart. axis [0,0,1]
      3s_v-3s_v   16  -16   24   23  -23  -24
          inv. 180 deg rotation - cart. axis [1,0,0]
      3s_d-3s_d   15  -15  -21   22  -22   21
          inv. 180 deg rotation - cart. axis [0,1,0]

   Cartesian axes

     site n.     atom                  positions (alat units)
         1           Sn  tau(   1) = (   0.0000000   0.5773503   2.1351428  )
         2           Sn  tau(   2) = (   0.5000000   0.2886751   2.1351428  )

   Crystallographic axes

     site n.     atom                  positions (cryst. coord.)
         1           Sn  tau(   1) = (  0.3333333  0.6666667  0.5000000  )
         2           Sn  tau(   2) = (  0.6666667  0.3333333  0.5000000  )

     number of k points=    61  Methfessel-Paxton smearing, width (Ry)=  0.0200
                       cart. coord. in units 2pi/alat
        k(    1) = (   0.0000000   0.0000000   0.0000000), wk =   0.0017361
        k(    2) = (   0.0000000   0.0481125   0.0000000), wk =   0.0104167
        k(    3) = (   0.0000000   0.0962250   0.0000000), wk =   0.0104167
        k(    4) = (   0.0000000   0.1443376   0.0000000), wk =   0.0104167
        k(    5) = (   0.0000000   0.1924501   0.0000000), wk =   0.0104167
        k(    6) = (   0.0000000   0.2405626   0.0000000), wk =   0.0104167
        k(    7) = (   0.0000000   0.2886751   0.0000000), wk =   0.0104167
        k(    8) = (   0.0000000   0.3367877   0.0000000), wk =   0.0104167
        k(    9) = (   0.0000000   0.3849002   0.0000000), wk =   0.0104167
        k(   10) = (   0.0000000   0.4330127   0.0000000), wk =   0.0104167
        k(   11) = (   0.0000000   0.4811252   0.0000000), wk =   0.0104167
        k(   12) = (   0.0000000   0.5292377   0.0000000), wk =   0.0104167
        k(   13) = (   0.0000000  -0.5773503   0.0000000), wk =   0.0052083
        k(   14) = (   0.0416667   0.0721688   0.0000000), wk =   0.0104167
        k(   15) = (   0.0416667   0.1202813   0.0000000), wk =   0.0208333
        k(   16) = (   0.0416667   0.1683938   0.0000000), wk =   0.0208333
        k(   17) = (   0.0416667   0.2165064   0.0000000), wk =   0.0208333
        k(   18) = (   0.0416667   0.2646189   0.0000000), wk =   0.0208333
        k(   19) = (   0.0416667   0.3127314   0.0000000), wk =   0.0208333
        k(   20) = (   0.0416667   0.3608439   0.0000000), wk =   0.0208333
        k(   21) = (   0.0416667   0.4089564   0.0000000), wk =   0.0208333
        k(   22) = (   0.0416667   0.4570690   0.0000000), wk =   0.0208333
        k(   23) = (   0.0416667   0.5051815   0.0000000), wk =   0.0208333
        k(   24) = (   0.0416667   0.5532940   0.0000000), wk =   0.0208333
        k(   25) = (   0.0833333   0.1443376   0.0000000), wk =   0.0104167
        k(   26) = (   0.0833333   0.1924501   0.0000000), wk =   0.0208333
        k(   27) = (   0.0833333   0.2405626   0.0000000), wk =   0.0208333
        k(   28) = (   0.0833333   0.2886751   0.0000000), wk =   0.0208333
        k(   29) = (   0.0833333   0.3367877   0.0000000), wk =   0.0208333
        k(   30) = (   0.0833333   0.3849002   0.0000000), wk =   0.0208333
        k(   31) = (   0.0833333   0.4330127   0.0000000), wk =   0.0208333
        k(   32) = (   0.0833333   0.4811252   0.0000000), wk =   0.0208333
        k(   33) = (   0.0833333   0.5292377   0.0000000), wk =   0.0208333
        k(   34) = (   0.0833333   0.5773503   0.0000000), wk =   0.0104167
        k(   35) = (   0.1250000   0.2165064   0.0000000), wk =   0.0104167
        k(   36) = (   0.1250000   0.2646189   0.0000000), wk =   0.0208333
        k(   37) = (   0.1250000   0.3127314   0.0000000), wk =   0.0208333
        k(   38) = (   0.1250000   0.3608439   0.0000000), wk =   0.0208333
        k(   39) = (   0.1250000   0.4089564   0.0000000), wk =   0.0208333
        k(   40) = (   0.1250000   0.4570690   0.0000000), wk =   0.0208333
        k(   41) = (   0.1250000   0.5051815   0.0000000), wk =   0.0208333
        k(   42) = (   0.1250000   0.5532940   0.0000000), wk =   0.0208333
        k(   43) = (   0.1666667   0.2886751   0.0000000), wk =   0.0104167
        k(   44) = (   0.1666667   0.3367877   0.0000000), wk =   0.0208333
        k(   45) = (   0.1666667   0.3849002   0.0000000), wk =   0.0208333
        k(   46) = (   0.1666667   0.4330127   0.0000000), wk =   0.0208333
        k(   47) = (   0.1666667   0.4811252   0.0000000), wk =   0.0208333
        k(   48) = (   0.1666667   0.5292377   0.0000000), wk =   0.0208333
        k(   49) = (   0.1666667   0.5773503   0.0000000), wk =   0.0104167
        k(   50) = (   0.2083333   0.3608439   0.0000000), wk =   0.0104167
        k(   51) = (   0.2083333   0.4089564   0.0000000), wk =   0.0208333
        k(   52) = (   0.2083333   0.4570690   0.0000000), wk =   0.0208333
        k(   53) = (   0.2083333   0.5051815   0.0000000), wk =   0.0208333
        k(   54) = (   0.2083333   0.5532940   0.0000000), wk =   0.0208333
        k(   55) = (   0.2500000   0.4330127   0.0000000), wk =   0.0104167
        k(   56) = (   0.2500000   0.4811252   0.0000000), wk =   0.0208333
        k(   57) = (   0.2500000   0.5292377   0.0000000), wk =   0.0208333
        k(   58) = (   0.2500000   0.5773503   0.0000000), wk =   0.0104167
        k(   59) = (   0.2916667   0.5051815   0.0000000), wk =   0.0104167
        k(   60) = (   0.2916667   0.5532940   0.0000000), wk =   0.0208333
        k(   61) = (   0.3333333   0.5773503   0.0000000), wk =   0.0034722

                       cryst. coord.
        k(    1) = (   0.0000000   0.0000000   0.0000000), wk =   0.0017361
        k(    2) = (   0.0000000   0.0416667   0.0000000), wk =   0.0104167
        k(    3) = (   0.0000000   0.0833333   0.0000000), wk =   0.0104167
        k(    4) = (   0.0000000   0.1250000   0.0000000), wk =   0.0104167
        k(    5) = (   0.0000000   0.1666667   0.0000000), wk =   0.0104167
        k(    6) = (   0.0000000   0.2083333   0.0000000), wk =   0.0104167
        k(    7) = (   0.0000000   0.2500000   0.0000000), wk =   0.0104167
        k(    8) = (   0.0000000   0.2916667   0.0000000), wk =   0.0104167
        k(    9) = (   0.0000000   0.3333333   0.0000000), wk =   0.0104167
        k(   10) = (   0.0000000   0.3750000   0.0000000), wk =   0.0104167
        k(   11) = (   0.0000000   0.4166667   0.0000000), wk =   0.0104167
        k(   12) = (   0.0000000   0.4583333   0.0000000), wk =   0.0104167
        k(   13) = (   0.0000000  -0.5000000   0.0000000), wk =   0.0052083
        k(   14) = (   0.0416667   0.0416667   0.0000000), wk =   0.0104167
        k(   15) = (   0.0416667   0.0833333   0.0000000), wk =   0.0208333
        k(   16) = (   0.0416667   0.1250000   0.0000000), wk =   0.0208333
        k(   17) = (   0.0416667   0.1666667   0.0000000), wk =   0.0208333
        k(   18) = (   0.0416667   0.2083333   0.0000000), wk =   0.0208333
        k(   19) = (   0.0416667   0.2500000   0.0000000), wk =   0.0208333
        k(   20) = (   0.0416667   0.2916667   0.0000000), wk =   0.0208333
        k(   21) = (   0.0416667   0.3333333   0.0000000), wk =   0.0208333
        k(   22) = (   0.0416667   0.3750000   0.0000000), wk =   0.0208333
        k(   23) = (   0.0416667   0.4166667   0.0000000), wk =   0.0208333
        k(   24) = (   0.0416667   0.4583333   0.0000000), wk =   0.0208333
        k(   25) = (   0.0833333   0.0833333   0.0000000), wk =   0.0104167
        k(   26) = (   0.0833333   0.1250000   0.0000000), wk =   0.0208333
        k(   27) = (   0.0833333   0.1666667   0.0000000), wk =   0.0208333
        k(   28) = (   0.0833333   0.2083333   0.0000000), wk =   0.0208333
        k(   29) = (   0.0833333   0.2500000   0.0000000), wk =   0.0208333
        k(   30) = (   0.0833333   0.2916667   0.0000000), wk =   0.0208333
        k(   31) = (   0.0833333   0.3333333   0.0000000), wk =   0.0208333
        k(   32) = (   0.0833333   0.3750000   0.0000000), wk =   0.0208333
        k(   33) = (   0.0833333   0.4166667   0.0000000), wk =   0.0208333
        k(   34) = (   0.0833333   0.4583333   0.0000000), wk =   0.0104167
        k(   35) = (   0.1250000   0.1250000   0.0000000), wk =   0.0104167
        k(   36) = (   0.1250000   0.1666667   0.0000000), wk =   0.0208333
        k(   37) = (   0.1250000   0.2083333   0.0000000), wk =   0.0208333
        k(   38) = (   0.1250000   0.2500000   0.0000000), wk =   0.0208333
        k(   39) = (   0.1250000   0.2916667   0.0000000), wk =   0.0208333
        k(   40) = (   0.1250000   0.3333333   0.0000000), wk =   0.0208333
        k(   41) = (   0.1250000   0.3750000   0.0000000), wk =   0.0208333
        k(   42) = (   0.1250000   0.4166667   0.0000000), wk =   0.0208333
        k(   43) = (   0.1666667   0.1666667   0.0000000), wk =   0.0104167
        k(   44) = (   0.1666667   0.2083333   0.0000000), wk =   0.0208333
        k(   45) = (   0.1666667   0.2500000   0.0000000), wk =   0.0208333
        k(   46) = (   0.1666667   0.2916667   0.0000000), wk =   0.0208333
        k(   47) = (   0.1666667   0.3333333   0.0000000), wk =   0.0208333
        k(   48) = (   0.1666667   0.3750000   0.0000000), wk =   0.0208333
        k(   49) = (   0.1666667   0.4166667   0.0000000), wk =   0.0104167
        k(   50) = (   0.2083333   0.2083333   0.0000000), wk =   0.0104167
        k(   51) = (   0.2083333   0.2500000   0.0000000), wk =   0.0208333
        k(   52) = (   0.2083333   0.2916667   0.0000000), wk =   0.0208333
        k(   53) = (   0.2083333   0.3333333   0.0000000), wk =   0.0208333
        k(   54) = (   0.2083333   0.3750000   0.0000000), wk =   0.0208333
        k(   55) = (   0.2500000   0.2500000   0.0000000), wk =   0.0104167
        k(   56) = (   0.2500000   0.2916667   0.0000000), wk =   0.0208333
        k(   57) = (   0.2500000   0.3333333   0.0000000), wk =   0.0208333
        k(   58) = (   0.2500000   0.3750000   0.0000000), wk =   0.0104167
        k(   59) = (   0.2916667   0.2916667   0.0000000), wk =   0.0104167
        k(   60) = (   0.2916667   0.3333333   0.0000000), wk =   0.0208333
        k(   61) = (   0.3333333   0.3333333   0.0000000), wk =   0.0034722

     Initial potential from superposition of free atoms

     starting charge      27.9978, renormalised to      28.0000

     negative rho (up, down):  4.147E-04 0.000E+00
     Starting wfcs are   36 randomized atomic wfcs +   24 random wfcs
     Checking if some PAW data can be deallocated...

     Self-consistent Calculation

     iteration #  1     ecut=    60.00 Ry     beta= 0.70
     Davidson diagonalization with overlap

     ethr =  1.00E-02,  avg # of iterations =  9.0

     Threshold (ethr) on eigenvalues was too large:
     Diagonalizing with lowered threshold

     Davidson diagonalization with overlap

[...]

     negative rho (up, down):  3.551E-04 0.000E+00

     total energy              =    -885.77971208 Ry
     estimated scf accuracy    <       0.01893453 Ry

[...]

     c_bands:  2 eigenvalues not converged
     c_bands:  1 eigenvalues not converged
     c_bands:  1 eigenvalues not converged
     c_bands:  2 eigenvalues not converged
     ethr =  5.11E-06,  avg # of iterations =  9.9

[...]

     c_bands:  2 eigenvalues not converged
     ethr =  3.26E-07,  avg # of iterations =  2.6

[...]

     total energy              =    -885.78106309 Ry
     estimated scf accuracy    <       0.00000041 Ry

     iteration #  6     ecut=    60.00 Ry     beta= 0.70
     Davidson diagonalization with overlap

     ethr =  1.47E-09,  avg # of iterations =  2.0

     negative rho (up, down):  3.305E-04 0.000E+00

     End of self-consistent calculation

          k = 0.0000 0.0000 0.0000 ( 20025 PWs)   bands (ev):

   -24.6149 -24.6149 -24.5111 -24.5111 -24.4769 -24.4769 -24.4473 -24.4473
   -23.6430 -23.6430 -23.5024 -23.5024 -23.4891 -23.4891 -23.3724 -23.3724
   -23.3546 -23.3546 -23.3435 -23.3435 -12.1803 -12.1803  -4.2900  -4.2900
    -3.6672  -3.6672  -3.5895  -3.5895  -3.1154  -3.1154   0.5657   0.5657
     0.7914   0.7914   1.0220   1.0220   2.0074   2.0074   2.2979   2.2979
     2.3536   2.3536   3.4429   3.4429   3.6351   3.6351   4.0257   4.0257
     5.7396   5.7397   6.0645   6.0646   6.1296   6.1296   6.1680   6.1680
     7.4199   7.4199   7.4334   7.4334

     occupation numbers
     1.0000   1.0000   1.0000   1.0000   1.0000   1.0000   1.0000   1.0000
     1.0000   1.0000   1.0000   1.0000   1.0000   1.0000   1.0000   1.0000
     1.0000   1.0000   1.0000   1.0000   1.0000   1.0000   1.0000   1.0000
     1.0000   1.0000   1.0000   1.0000   1.0000   1.0000  -0.0000  -0.0000
    -0.0000  -0.0000  -0.0000  -0.0000  -0.0000  -0.0000  -0.0000  -0.0000
    -0.0000  -0.0000  -0.0000  -0.0000  -0.0000  -0.0000  -0.0000  -0.0000
    -0.0000  -0.0000  -0.0000  -0.0000  -0.0000  -0.0000  -0.0000  -0.0000
    -0.0000  -0.0000  -0.0000  -0.0000

[...]

          k = 0.3333 0.5774 0.0000 ( 20133 PWs)   bands (ev):

   -24.6242 -24.6242 -24.5965 -24.5965 -24.4870 -24.4870 -24.4485 -24.4485
   -23.6276 -23.6276 -23.5751 -23.5751 -23.4280 -23.4280 -23.3906 -23.3906
   -23.2984 -23.2984 -23.2386 -23.2386  -9.8116  -9.8116  -9.7559  -9.7559
    -5.8337  -5.8337  -1.9258  -1.9258  -1.9047  -1.9047   1.7188   1.7188
     2.0726   2.0726   2.1649   2.1649   3.4804   3.4804   3.8807   3.8807
     3.8820   3.8820   4.7928   4.7928   4.9849   4.9849   4.9866   4.9866
     5.3262   5.3262   5.3262   5.3262   5.4175   5.4175   5.4560   5.4560
     6.4359   6.4362   6.4388   6.4390

     occupation numbers
     1.0000   1.0000   1.0000   1.0000   1.0000   1.0000   1.0000   1.0000
     1.0000   1.0000   1.0000   1.0000   1.0000   1.0000   1.0000   1.0000
     1.0000   1.0000   1.0000   1.0000   1.0000   1.0000   1.0000   1.0000
     1.0000   1.0000  -0.0354  -0.0354  -0.0342  -0.0342  -0.0000  -0.0000
    -0.0000  -0.0000  -0.0000  -0.0000  -0.0000  -0.0000  -0.0000  -0.0000
    -0.0000  -0.0000  -0.0000  -0.0000  -0.0000  -0.0000  -0.0000  -0.0000
    -0.0000  -0.0000  -0.0000  -0.0000  -0.0000  -0.0000  -0.0000  -0.0000
    -0.0000  -0.0000  -0.0000  -0.0000

     the Fermi energy is    -2.2646 ev

!    total energy              =    -885.78106319 Ry
     total all-electron energy =    -24716.480813 Ry
     estimated scf accuracy    <          7.6E-09 Ry
     smearing contrib. (-TS)   =       0.00025028 Ry
     internal energy E=F+TS    =    -885.78131347 Ry

     The total energy is F=E-TS. E is the sum of the following terms:
     one-electron contribution =    -874.60668870 Ry
     hartree contribution      =     446.29911740 Ry
     xc contribution           =     -96.08778028 Ry
     ewald contribution        =     202.48066054 Ry
     one-center paw contrib.   =    -563.86662243 Ry
      -> PAW hartree energy AE =     112.69733662 Ry
      -> PAW hartree energy PS =    -111.95677587 Ry
      -> PAW xc energy AE      =    -330.15633664 Ry
      -> PAW xc energy PS      =      47.48246467 Ry
      -> total E_H with PAW    =     447.03967815 Ry
      -> total E_XC with PAW   =    -378.76165225 Ry

     convergence has been achieved in   6 iterations

     Writing all to output data dir ../tmp/stanene.save/

     General routines

     Parallel routines

     PAW routines

   This run was terminated on:   5:28:34  28Jun2024

   JOB DONE.